*Heading
** Job name: plate_circle1__1000 Model name: PlateModel
** Generated by: Abaqus/CAE 2022
*Preprint, echo=NO, model=NO, history=NO, contact=NO
**
** PARTS
**
*Part, name=plate
*Node
      1,  0.353553385,  0.353553385
      2,           0.,          0.5
      3, -0.353553385,  0.353553385
      4,         -0.5,           0.
      5, -0.353553385, -0.353553385
      6,           0.,         -0.5
      7,  0.353553385, -0.353553385
      8,          0.5,           0.
      9,   28.2089558,           5.
     10,   26.4179096,           5.
     11,   24.6268654,           5.
     12,   22.8358212,           5.
     13,   21.0447769,           5.
     14,   18.3582096,           5.
     15,   16.5671635,           5.
     16,   14.7761192,           5.
     17,    12.985075,           5.
     18,   11.1940298,           5.
     19,   9.40298462,           5.
     20,   7.61194038,           5.
     21,   5.82089567,           5.
     22,   4.02985096,           5.
     23,   2.23880601,           5.
     24,  0.447761208,           5.
     25,  -2.23880601,           5.
     26,  -4.02985096,           5.
     27,  -5.82089567,           5.
     28,  -7.61194038,           5.
     29,  -9.40298462,           5.
     30,  -11.1940298,           5.
     31,   -12.985075,           5.
     32,  -14.7761192,           5.
     33,  -16.5671635,           5.
     34,  -18.3582096,           5.
     35,  -21.0447769,           5.
     36,  -22.8358212,           5.
     37,  -24.6268654,           5.
     38,  -26.4179096,           5.
     39,  -28.2089558,           5.
     40,          30.,           5.
     41,         -30.,           5.
     42,         -30.,   3.18181825
     43,         -30.,   1.36363637
     44,         -30., -0.454545468
     45,         -30.,  -1.36363637
     46,         -30.,  -3.18181825
     47,         -30.,          -5.
     48,  -28.2089558,          -5.
     49,  -26.4179096,          -5.
     50,  -24.6268654,          -5.
     51,  -22.8358212,          -5.
     52,  -21.0447769,          -5.
     53,  -18.3582096,          -5.
     54,  -16.5671635,          -5.
     55,  -14.7761192,          -5.
     56,   -12.985075,          -5.
     57,  -11.1940298,          -5.
     58,  -9.40298462,          -5.
     59,  -7.61194038,          -5.
     60,  -5.82089567,          -5.
     61,  -4.02985096,          -5.
     62,  -2.23880601,          -5.
     63, -0.447761208,          -5.
     64,   2.23880601,          -5.
     65,   4.02985096,          -5.
     66,   5.82089567,          -5.
     67,   7.61194038,          -5.
     68,   9.40298462,          -5.
     69,   11.1940298,          -5.
     70,    12.985075,          -5.
     71,   14.7761192,          -5.
     72,   16.5671635,          -5.
     73,   18.3582096,          -5.
     74,   21.0447769,          -5.
     75,   22.8358212,          -5.
     76,   24.6268654,          -5.
     77,   26.4179096,          -5.
     78,   28.2089558,          -5.
     79,          30.,          -5.
     80,          30.,  -3.18181825
     81,          30.,  -1.36363637
     82,          30.,  0.454545468
     83,          30.,   1.36363637
     84,          30.,   3.18181825
     85,   1.82043862,  -1.74153066
     86,   28.0880985, -0.064755857
     87,   26.2621689, -0.0132299718
     88,    24.312664,  0.182439506
     89,   22.5443363, -0.0654257312
     90,   20.5802078, 0.0697468445
     91,   18.6647205,  0.173483297
     92,   16.6403675, -0.052738104
     93,   15.0488834,  0.110853128
     94,   13.1326561, 0.0901796892
     95,    11.347703, 0.0135122389
     96,   9.28944206,  0.150609583
     97,   7.38393497, 0.0211785175
     98,   5.74091005, -0.0116928583
     99,   3.53604531, -0.0112612881
    100,   1.93127203, 0.0241848808
    101,  -28.2847748,  -1.53748548
    102,  -26.2692184,   -1.7045815
    103,  -24.3784733,  -1.76079905
    104,  -22.3213577,  -1.72573423
    105,  -20.6420689,  -1.55301213
    106,  -18.6615143,  -1.67503417
    107,    -16.84589,  -1.73863876
    108,  -15.0035887,  -1.71050322
    109,  -13.1691675,  -1.69191515
    110,  -11.3001337,  -1.67995524
    111,  -9.42198181,  -1.67367411
    112,    -7.419034,  -1.68662691
    113,  -5.61509275,  -1.46739721
    114,  -3.62711835,  -1.58934343
    115,  -1.79266632,  -1.62449813
    116, 0.000591334945,  -1.56599867
    117,   3.77590728,  -1.57042253
    118,   5.49575043,  -1.62992418
    119,   7.48289537,  -1.66203761
    120,   9.33744717,  -1.70287144
    121,   11.3174925,  -1.61592937
    122,   13.1562672,  -1.75200474
    123,   15.1215057,  -1.66338015
    124,   17.0829086,  -1.70206618
    125,   18.7837429,  -1.54483533
    126,   20.7423191,  -1.62547755
    127,    22.533226,  -1.74847746
    128,   24.3309345,  -1.72436643
    129,   26.2136803,  -1.68042457
    130,    28.242857,  -1.58932757
    131,  -1.96018147, -0.0367599837
    132,  -3.65875411, 0.0422628708
    133,  -5.73257971, -0.0412220396
    134,   -7.3399682, -0.0242344085
    135,  -9.29098129, -0.0568093322
    136,  -11.3479338, -0.0156506002
    137,  -13.1330719, -0.0910849124
    138,  -15.0493488,  -0.11085508
    139,  -16.6404266, 0.0524120256
    140,  -18.6644726, -0.173639461
    141,  -20.5801506, -0.0697571486
    142,  -22.5443687, 0.0654845536
    143,  -24.3124905, -0.182208002
    144,  -26.2620258, 0.0138645843
    145,  -28.0880566, 0.0651147962
    146,   28.2847691,   1.53754783
    147,   26.2692757,   1.70485532
    148,   24.3786106,   1.76095963
    149,   22.3213615,   1.72570503
    150,   20.6420784,    1.5529083
    151,   18.6617298,   1.67496467
    152,   16.8460369,   1.73842359
    153,   15.0034494,   1.71082568
    154,   13.1649151,   1.68394768
    155,   11.2915344,   1.66654718
    156,   9.36823177,    1.4939326
    157,   7.45186329,   1.69139755
    158,   5.63505077,    1.6946969
    159,   3.59126592,   1.56829667
    160,   1.78554368,   1.61214805
    161, -0.000157450486,   1.56305373
    162,   -1.8183918,   1.74435902
    163,   -3.7429738,   1.58553553
    164,  -5.44073486,   1.56263018
    165,  -7.68769693,   1.65368712
    166,  -9.26970387,   1.74656653
    167,  -11.3148088,   1.60751688
    168,  -13.1563749,   1.75154161
    169,  -15.1219206,    1.6635164
    170,  -17.0829754,   1.70203614
    171,   -18.783699,   1.54480314
    172,  -20.7423248,   1.62556756
    173,  -22.5332355,   1.74853384
    174,  -24.3308296,   1.72432637
    175,  -26.2132969,   1.68082011
    176,  -28.2425156,   1.58966029
    177,  -28.3181572,   3.26204753
    178,  -26.2763557,   3.31707978
    179,  -24.4557915,    3.3169024
    180,  -22.6097527,    3.4095099
    181,  -20.8272552,    3.3208046
    182,  -18.6791782,   3.51103473
    183,  -16.7741241,   3.44607639
    184,  -14.9670496,   3.36771846
    185,  -13.1062727,   3.32846093
    186,  -11.2115345,    3.3004787
    187,  -9.37638855,   3.34616446
    188,  -7.41492319,   3.28221679
    189,  -5.62317657,   3.38400102
    190,  -3.85497284,   3.43827367
    191,  -1.93146265,   3.40458608
    192, -0.00500523951,   3.62769818
    193,   1.97494626,   3.41259599
    194,   3.86123729,    3.2410233
    195,   5.69529676,   3.37889361
    196,   7.54924202,   3.33423758
    197,   9.40007114,   3.27713799
    198,   11.2554159,   3.29770637
    199,   13.1103535,   3.30508852
    200,   14.9291744,   3.31377435
    201,   16.7729836,   3.41115355
    202,   18.5610409,   3.32384586
    203,   20.7115517,   3.51379991
    204,   22.6173229,   3.45491004
    205,    24.450037,   3.41434169
    206,   26.3006382,   3.39888191
    207,   28.3504028,   3.28128934
    208,  -28.3504124,  -3.28128576
    209,  -26.3006573,  -3.39884067
    210,   -24.450037,  -3.41431808
    211,  -22.6173172,   -3.4549253
    212,  -20.7115917,   -3.5138247
    213,  -18.5610161,   -3.3238368
    214,  -16.7729568,  -3.41113687
    215,  -14.9295835,   -3.3136127
    216,  -13.1172056,  -3.31298614
    217,  -11.2656364,  -3.30766129
    218,  -9.43127251,  -3.30653119
    219,  -7.66958427,  -3.39243937
    220,  -5.54727697,   -3.3606627
    221,  -3.91079712,  -3.27839255
    222,  -1.97789347,   -3.4128325
    223, 0.00459577516,  -3.62834692
    224,   1.93317771,  -3.39856958
    225,   3.84561443,  -3.43573642
    226,   5.62477541,   -3.3417294
    227,   7.46098232,  -3.28812003
    228,   9.41452026,  -3.27487421
    229,   11.2145653,  -3.30923009
    230,    13.106288,  -3.32959223
    231,   14.9668541,  -3.36771035
    232,   16.7741222,  -3.44602466
    233,   18.6791821,  -3.51102924
    234,   20.8272572,  -3.32078218
    235,   22.6097641,  -3.40952492
    236,   24.4558945,  -3.31705642
    237,   26.2768059,  -3.31718445
    238,   28.3185501,  -3.26204848
    239,   29.1044769,           5.
    240,   27.3134327,           5.
    241,   25.5223885,           5.
    242,   23.7313442,           5.
    243,   21.9402981,           5.
    244,   20.1492538,           5.
    245,   19.2537308,           5.
    246,   17.4626865,           5.
    247,   15.6716413,           5.
    248,   13.8805971,           5.
    249,   12.0895519,           5.
    250,   10.2985077,           5.
    251,    8.5074625,           5.
    252,   6.71641779,           5.
    253,   4.92537308,           5.
    254,   3.13432837,           5.
    255,   1.34328353,           5.
    256, -0.447761208,           5.
    257,  -1.34328353,           5.
    258,  -3.13432837,           5.
    259,  -4.92537308,           5.
    260,  -6.71641779,           5.
    261,   -8.5074625,           5.
    262,  -10.2985077,           5.
    263,  -12.0895519,           5.
    264,  -13.8805971,           5.
    265,  -15.6716413,           5.
    266,  -17.4626865,           5.
    267,  -19.2537308,           5.
    268,  -20.1492538,           5.
    269,  -21.9402981,           5.
    270,  -23.7313442,           5.
    271,  -25.5223885,           5.
    272,  -27.3134327,           5.
    273,  -29.1044769,           5.
    274,         -30.,     4.090909
    275,         -30.,   2.27272725
    276,         -30.,  0.454545468
    277,         -30.,  -2.27272725
    278,         -30.,    -4.090909
    279,  -29.1044769,          -5.
    280,  -27.3134327,          -5.
    281,  -25.5223885,          -5.
    282,  -23.7313442,          -5.
    283,  -21.9402981,          -5.
    284,  -20.1492538,          -5.
    285,  -19.2537308,          -5.
    286,  -17.4626865,          -5.
    287,  -15.6716413,          -5.
    288,  -13.8805971,          -5.
    289,  -12.0895519,          -5.
    290,  -10.2985077,          -5.
    291,   -8.5074625,          -5.
    292,  -6.71641779,          -5.
    293,  -4.92537308,          -5.
    294,  -3.13432837,          -5.
    295,  -1.34328353,          -5.
    296,  0.447761208,          -5.
    297,   1.34328353,          -5.
    298,   3.13432837,          -5.
    299,   4.92537308,          -5.
    300,   6.71641779,          -5.
    301,    8.5074625,          -5.
    302,   10.2985077,          -5.
    303,   12.0895519,          -5.
    304,   13.8805971,          -5.
    305,   15.6716413,          -5.
    306,   17.4626865,          -5.
    307,   19.2537308,          -5.
    308,   20.1492538,          -5.
    309,   21.9402981,          -5.
    310,   23.7313442,          -5.
    311,   25.5223885,          -5.
    312,   27.3134327,          -5.
    313,   29.1044769,          -5.
    314,          30.,    -4.090909
    315,          30.,  -2.27272725
    316,          30., -0.454545468
    317,          30.,   2.27272725
    318,          30.,     4.090909
    319,  0.308012992, -0.755961835
    320, -0.776737809,   0.31156534
    321,  0.307822198,  0.755608737
    322,  0.762503386,  0.320369601
    323, -0.308611363,  -0.75692296
    324, -0.765603721, -0.321878284
    325,  -0.30821225,  0.756283343
    326,  0.773862302, -0.310379773
    327, -0.000130256783, -0.990024626
    328,  0.728038907,  0.761432827
    329,   -1.0713712, -0.0273590367
    330, -0.767475188,  0.746848881
    331, -0.731304765, -0.765297055
    332, -0.000137306008,  0.988940001
    333,  0.765563607, -0.744664073
    334,   1.06311691,  0.025993133
    335,   20.6031303,   4.37629795
    336,  -20.6031475,  -4.37629986
    337,   28.7844181,   4.18099928
    338,   26.8290997,   4.20334005
    339,   24.9991531,    4.2164216
    340,   23.1881218,   4.22810555
    341,   19.6800194,   4.07299566
    342,   17.0959187,    4.2308116
    343,  -28.7844181,   -4.1809988
    344,  -26.8291073,  -4.20332909
    345,   -24.999155,  -4.21641111
    346,  -23.1881199,  -4.22810698
    347,  -19.6800327,  -4.07300091
    348,  -17.0959263,  -4.23081493
    349,   16.2134113,   4.18523026
    350,  -16.2133827,  -4.18518639
    351,   15.3073835,   4.16157627
    352,   -15.307373,  -4.16144276
    353,   27.7862415,   4.17524433
    354,   25.9030647,   4.20535898
    355,  -1.69637787,  -4.19687796
    356, 0.00427670358,  -4.38415718
    357,  0.778302372,  -4.13953543
    358,  -8.00396729,   4.16897535
    359,  -9.84318542,   4.16911888
    360,  -10.7765131,  -4.14513063
    361,  -8.97106171,  -4.15570259
    362,    24.082922,   4.21399212
    363,   22.2824631,    4.2480979
    364,   17.9704838,   4.24429512
    365,   14.4035416,   4.14962626
    366,   12.5973139,    4.1457324
    367,   10.7690363,   4.13862753
    368,   8.94627285,    4.1407876
    369,   7.12865686,   4.17698097
    370,   5.31684208,   4.20047426
    371,   3.54090977,   4.19496202
    372,   1.69552946,     4.197124
    373, -0.00458434084,   4.38420105
    374, -0.778550267,   4.13970757
    375,  -2.61228323,    4.0790906
    376,  -4.47119474,   4.14026165
    377,  -6.19652843,   4.23044777
    378,  -11.6613598,   4.15262079
    379,  -12.6019487,  -4.15162563
    380,  -13.5059404,    4.1579299
    381,  -14.4049644,  -4.15007305
    382,  -15.3170891,   4.19640017
    383,  -17.1097507,   4.24691772
    384,  -17.9704819,  -4.24429941
    385,  -18.7949677,   4.37581396
    386,  -21.4247208,   4.24358511
    387,   -22.282465,   -4.2481041
    388,   -23.178194,   4.18149042
    389,  -24.0829201,   -4.2139864
    390,   -24.985302,   4.14702225
    391,  -25.9030704,   -4.2053442
    392,  -26.8074398,   4.15481377
    393,  -27.7862473,  -4.17523861
    394,  -28.7671967,    4.1696496
    395,  -7.22047663,  -4.17893887
    396,  -5.30334663,  -4.20127964
    397,  -3.55343795,  -4.20079708
    398,   2.61445737,  -4.06632137
    399,   4.37504005,  -4.19410753
    400,   6.17947865,  -4.17337847
    401,   8.00777531,   -4.1192317
    402,   9.84714031,  -4.14711046
    403,   11.6622229,  -4.15457153
    404,   13.5059671,  -4.15846157
    405,   15.3170347,  -4.19639111
    406,   17.1097584,   -4.2468996
    407,   18.7949696,  -4.37581301
    408,   21.4247208,  -4.24358034
    409,   23.1782017,  -4.18152142
    410,   24.9854088,  -4.14713097
    411,   26.8077126,  -4.15489483
    412,    28.767355,  -4.16967249
    413,   21.3808937,   4.27587223
    414,   18.7646961,   4.32822752
    415,   13.4995575,   4.14897633
    416,   11.6851397,   4.14801788
    417,   9.85744667,   4.13907576
    418,   8.03627014,   4.15817165
    419,   6.21656942,   4.18687487
    420,   4.41376734,   4.17426491
    421,    2.6575315,   4.07758856
    422,  0.775190175,   4.13704729
    423,  -1.69372511,   4.19660568
    424,  -3.54522777,   4.20412302
    425,  -5.34114075,   4.25316095
    426,  -7.08781958,   4.20712233
    427,  -8.92752743,   4.16997099
    428,  -10.7511759,   4.15050936
    429,   -12.584424,   4.15746069
    430,  -14.4197683,   4.17630863
    431,  -16.2213364,   4.21695995
    432,  -18.0147228,   4.27389002
    433,  -19.7153797,   4.07226706
    434,  -20.6322765,   4.32733154
    435,  -22.2996845,   4.23624516
    436,  -24.0850735,   4.16259336
    437,  -25.8953495,    4.1535511
    438,  -27.7725773,   4.15055513
    439,  -21.3809052,  -4.27588034
    440,  -18.7646942,  -4.32822752
    441,  -13.5022678,  -4.15152073
    442,  -11.6883011,  -4.15389347
    443,  -9.86970711,  -4.14984798
    444,  -8.08623409,  -4.17650509
    445,  -6.27345467,  -4.02692842
    446,  -4.42300701,  -4.20988607
    447,  -2.66411996,  -4.07803488
    448, -0.775664091,  -4.13715124
    449,   1.69417667,  -4.19313908
    450,   3.53001857,  -4.20167875
    451,   5.26759195,  -4.17741251
    452,   7.08576727,  -4.15347147
    453,   8.93464947,  -4.10827875
    454,   10.7537918,   -4.1514101
    455,   12.5846357,  -4.15847206
    456,    14.419672,  -4.17643547
    457,    16.221323,  -4.21693182
    458,   18.0147285,  -4.27388144
    459,   19.7153797,  -4.07226276
    460,   20.6322765,  -4.32732487
    461,   22.2996883,  -4.23625135
    462,   24.0851097,  -4.16265917
    463,   25.8955326,  -4.15363646
    464,   27.7728119,  -4.15058041
    465,   29.2689838,   3.49923658
    466,  -29.2689838,  -3.49923873
    467,   29.1504536,  -1.01442766
    468,   29.1988411,  -2.75623393
    469,  -29.1503124,   1.01456976
    470,  -29.1986103,   2.75626135
    471,   29.1687737,  0.968283772
    472,   29.1990795,   1.88422942
    473,  -29.1687641, -0.968241632
    474,  -29.1990795,  -1.88421571
    475,   -29.256794,   3.49213719
    476,  -29.1791477,   1.90091145
    477,  -29.0460663, 0.0322769694
    478,  -29.2248878,  -2.75355101
    479,   29.2569485,  -3.49213648
    480,    29.179348,  -1.90080774
    481,   29.0461121, -0.0321227796
    482,    29.224884,   2.75355244
    483,   1.20850289, -0.424080819
    484,   -1.2179445,  0.425369263
    485,   1.12868261,  0.510832012
    486,  0.435914427,   -1.1754657
    487,  -0.43571648,   1.17547691
    488,  -1.13741434, -0.516251743
    489, -0.425707012,  -1.18285787
    490,  0.424102187,   1.17893362
    491,  -1.29436207,   3.56322193
    492,   1.29504073,  -3.56147933
    493,   -1.3035301,  -3.56307888
    494,   1.30189002,   3.56212592
    495,   27.2767277,   3.35388994
    496,    23.522543,   3.41775298
    497,  -27.2767506,  -3.35385799
    498,  -23.5225353,  -3.41775203
    499,    17.577425,   3.56627655
    500,  -17.5773964,   -3.5662539
    501,   25.3713417,   3.40021682
    502,  -25.3713551,  -3.40017247
    503,  -21.8103313,   3.56625986
    504,   21.8103466,  -3.56625152
    505,    21.708313,   3.50404668
    506,  -21.7083263,  -3.50407219
    507,   1.50240004, -0.118741415
    508,   1.51636255,  0.285948038
    509,  -1.51956367,  0.114342079
    510,  -1.53668797, -0.295880049
    511,   1.14282393,   0.91515857
    512,   1.32592356,  -0.89114356
    513,  -1.33255088,  0.893519044
    514,  0.915855169,   1.26013219
    515,  0.954252303,  -1.26957572
    516,  -1.14970803, -0.921631634
    517, -0.954543352,   1.27106619
    518, -0.919783652,  -1.26598239
    519,  -1.36871493,   2.89018679
    520,   1.37056553,  -2.88912463
    521, -0.594965219,  -1.69980013
    522, -0.602948606,    1.7036643
    523,   1.40103745,   2.89897847
    524,  0.604212999,  -1.70494807
    525,  0.592869461,   1.69461417
    526,  -1.40332913,  -2.90101314
    527,   -21.919241,   2.64840412
    528,   21.9192371,  -2.64835787
    529,  -22.0285664,  -2.70512295
    530,   22.0285587,   2.70507669
    531,  -17.4618626,  -2.65561152
    532,   17.4619617,   2.65557981
    533,   23.9278774,   2.59337354
    534,  -23.9278297,  -2.59332275
    535,   25.8074055,   2.57060742
    536,  -25.8073864,  -2.57048011
    537,  -27.7320614,  -2.46883535
    538,   27.7320442,     2.468889
    539,  -1.98279834, -0.560302138
    540,  -1.42180455,   -1.2331661
    541,   1.41248131,   1.22444665
    542,  -1.79714191,  0.501482487
    543,  -1.43143082,   1.34981215
    544,   1.42901456,  -1.34780157
    545,   1.79625404, -0.503044426
    546,   1.95941806,  0.532043278
    547, -0.233547345,   2.07182455
    548,  0.229481325,   2.06787634
    549,  0.234338284,  -2.07476115
    550, -0.230362907,  -2.07158709
    551,  -1.18175924,  -1.73210549
    552,  -1.17362261,    1.7822988
    553,   1.17696273,   1.72532499
    554,   1.17442298,  -1.78164792
    555, 0.00257005729,  -2.69929242
    556,    1.5131501,  0.755121768
    557, -0.00309761963,   2.69698071
    558,   2.38986182, -0.256447643
    559,   2.43478346,  0.263967127
    560,  -1.52788198, -0.766852498
    561,  -2.31721401,  0.260839701
    562,  -1.83865726,   1.09784687
    563,   1.83988655,  -1.09600449
    564,   -1.9160552,  -1.08348334
    565,   1.91676128,   1.05320609
    566, -0.788575888,    2.3732543
    567,  0.807765603,   2.35594559
    568,  0.789588749,  -2.37390137
    569, -0.809867382,  -2.35955906
    570,  -1.58547831,  -2.21691394
    571,   1.44203925,  -2.26643372
    572,   1.58172596,   2.21149325
    573,  -1.44001305,   2.26726437
    574,  -2.05565548,   2.55345559
    575, -0.706384301,   3.21517491
    576,  0.706777215,  -3.21528006
    577,    2.0609262,  -2.54075789
    578,  0.712963402,   3.21312928
    579,   2.11924529,   2.66747618
    580,  -2.12504172,  -2.66955256
    581, -0.714204133,  -3.21474028
    582,   -22.999548,   2.57292438
    583,   22.9995499,   -2.5729475
    584,  -21.2709351,  -2.86066532
    585,  -22.9752464,   -2.6080606
    586,   21.2708969,   2.86060309
    587,    22.975275,   2.60806489
    588,  -16.3805351,  -2.57203436
    589,   16.3806381,   2.57199931
    590,   24.8793583,   2.58157587
    591,   -24.879303,  -2.58147073
    592,   26.7688618,   2.52731538
    593,  -26.7688618,  -2.52720523
    594,   2.86228538, -0.0115761738
    595,   2.36744952, -0.833230913
    596,  -2.34720588,  0.803469539
    597,  -2.36365461, -0.873265147
    598,   2.39062333,   1.39972055
    599,  -2.37023568,  -1.39692593
    600,   2.45857096,   0.80927819
    601,  -2.28378153,   1.35883915
    602,  -21.3775501,   -2.0939281
    603,   21.3775177,   2.09386206
    604,   2.29655933,  -1.37041318
    605,  -2.62328577,   3.16918397
    606,  -20.5619411,  -2.47749519
    607,    20.561924,   2.47742534
    608,   2.63630772,  -3.13918138
    609,   2.96524906,  -1.29846263
    610,  -2.93640327,   1.28253913
    611,  -2.93438888,  0.372633278
    612,  -2.52854896, -0.306145668
    613,  -2.95562315,  -1.00815189
    614,  -2.50028968,   1.92857373
    615,   2.51857972,  -1.91451824
    616,   3.00473046,   1.13751638
    617,  -2.85460329,  -3.12350821
    618,   2.83805919,   3.11730647
    619,   19.6735744,   1.83116221
    620,  -19.6734676,  -1.83123732
    621,   21.4596519,   1.23405099
    622,  -21.4596996,  -1.23408926
    623,   23.4158592,   1.76167893
    624,  -19.6936684,  -2.94269466
    625,  -23.4158001,  -1.76162565
    626,   19.6936932,   2.94266629
    627,   23.4538441,  -1.78270602
    628,  -23.4538231,   1.78267777
    629,    15.898159,   1.74907279
    630,  -15.8981485,  -1.74919605
    631,  -25.3414783,  -1.73612452
    632,   25.3416538,   1.73641372
    633,  -15.8414354,  -3.36074305
    634,  -23.5435123,   3.36119604
    635,   23.5435467,  -3.36126399
    636,   15.8414164,   3.36083746
    637,  -27.2533073,  -1.62645113
    638,   27.2533131,   1.62665379
    639,  -17.6809521,   3.49834752
    640,   17.6809578,  -3.49832177
    641,   2.99257731,  0.493449599
    642,   2.88010573,   1.81484663
    643,  -2.88073945,  -1.79829597
    644,  -3.60654902,  0.815339625
    645,  -17.3618717,   2.69294381
    646,   17.3618622,  -2.69291186
    647,   2.68648505,   2.40018201
    648,  -2.69667578,  -2.40110016
    649,  -2.72146225,   2.53701115
    650,   2.74729347,  -2.50607514
    651,  -3.15973496, -0.337954074
    652,  -20.0580921, -0.838140607
    653,   20.0582027,  0.838055015
    654,  -23.0411282,   1.01776755
    655,   -22.967701, -0.924813807
    656,    -16.30793,  -0.93301475
    657,   22.9677086,  0.924855292
    658,   23.0411129,  -1.01773047
    659,   16.3078728,  0.932676375
    660,   2.95979857, -0.535875618
    661,  -3.17636919,   3.55937958
    662,   3.18336082,  -3.54013395
    663,   3.22443438,   3.65772009
    664,   -3.2457397,  -3.67018318
    665,    24.841362,   0.93397516
    666,  -24.8411732, -0.933660865
    667,   26.7497654,  0.810543299
    668,  -26.7496796, -0.810122073
    669,  -15.8773203,   3.39685488
    670,   15.8772421,  -3.39680004
    671,   3.63084507, -0.811074018
    672,   -3.2096324,   2.12322664
    673,   3.21985221,   -2.1072154
    674,  -3.71517467, -0.753030121
    675,  -3.36443043,  -2.41245866
    676,   -3.2827189,   2.88775826
    677,   3.27568436,  -2.87073398
    678,   2.24062157,   2.01764441
    679,  -2.24180627,  -2.01788116
    680,   3.35194063,   2.38221908
    681,  -15.5094709,   2.53824902
    682,    15.509223,  -2.53818727
    683,  -4.24398375,  0.475974977
    684,  -16.4396572,    2.5756464
    685,  -18.1178207,   2.85333991
    686,   16.4395428,    -2.575629
    687,   18.1178246,  -2.85332584
    688,   -20.841795, -0.818117559
    689,   20.8417969,  0.818087518
    690,  -15.4426632, -0.947600722
    691,   -17.255682, -0.837349057
    692,     15.44238,  0.947547019
    693,   17.2558384,  0.837130547
    694,  -22.1524181, -0.842948318
    695,     22.15238,  0.842972457
    696,   -23.822897,   1.14078391
    697,  -22.2222958,   1.02003014
    698,   22.2222672,  -1.01993358
    699,   23.8229542,   -1.1407454
    700,   23.9008636,  0.981381416
    701,  -23.9007626, -0.981232584
    702,   25.7933407,  0.872146904
    703,  -25.7931881, -0.871740997
    704,   3.62992907,  0.794641554
    705,   -4.1506505,   2.49722195
    706,  -24.6267948,  0.785834372
    707,   24.6269417, -0.785637975
    708,  -14.5635204,  -0.88110137
    709,   14.5631514,   0.88144356
    710,  -4.21558571,  -2.24621129
    711,   4.23232031,   2.19392419
    712,   -18.022316,    2.0736022
    713,   18.0222988,   -2.0736165
    714,  -4.37691975, -0.319452047
    715,  -4.17647028,   1.10452914
    716,   4.30174112,  0.399012625
    717,    4.0566082,  -2.50487256
    718,   18.8322716,  -2.46861959
    719,  -18.8322697,   2.46862078
    720,   21.4907074,  0.376333594
    721,  -21.4907246, -0.376310706
    722,   4.25609732,  -1.05035961
    723,  -14.5902433,   2.52461839
    724,   14.5898151,  -2.52459931
    725,   16.0573597,  -1.68471563
    726,  -16.0575962,   1.68468487
    727,  -17.7966728,  0.109862901
    728,   17.7967949, -0.110028103
    729,  -17.7826939,  -1.68351889
    730,  -15.8225279,  -0.25447467
    731,   17.7828789,   1.68340611
    732,   15.8222704,   0.25428924
    733,    21.643961,  -1.66942012
    734,    -21.64398,   1.66950381
    735,   23.6394958, -0.417120039
    736,  -23.6394367,  0.417229056
    737,  -4.80884409,  0.959631264
    738,  -4.54430819,   1.65000236
    739,   4.26866579, -0.381815463
    740,    4.3003068,   1.23316681
    741,  -4.68536663,   3.33046317
    742,   4.60436678,  -1.67799449
    743,   -4.5295763,  -1.29331505
    744,   15.6955156, -0.692042649
    745,   -15.695817,  0.692018032
    746,  -14.0890265,  -1.67409384
    747,   14.0878248,   1.67309284
    748,  -25.2495384,   1.65734947
    749,    25.249794,  -1.65721881
    750,   21.3547039, -0.686010361
    751,  -21.3546982,  0.686064124
    752,  -19.7338581,    1.8495537
    753,   19.7338943,  -1.84953713
    754,   17.9240971,  -1.14204109
    755,  -17.9240513,   1.14196372
    756,   19.6988163,  -2.94048715
    757,  -19.6988106,    2.9405055
    758,   4.70025349,  -3.36038542
    759,   17.1926594, -0.793802559
    760,   14.1134453,  -1.69509411
    761,  -17.1926823,   0.79365021
    762,  -14.1138191,   1.69509912
    763,   -14.041707,   3.34695888
    764,   14.0414696,  -3.34730077
    765,  -18.2126503, -0.855970681
    766,   18.2128525,  0.855829298
    767,    16.533762,  -0.98507303
    768,  -16.5338993,  0.984960258
    769,  -4.97669077,  0.201398313
    770,    4.8944006, 0.00345781469
    771,   5.12389135,  0.838725507
    772,    5.0176363, -0.802609861
    773,  -4.97295284,  -2.05865097
    774,   5.08264208,  -2.49644423
    775,   14.6014004, -0.796862304
    776,  -14.6017513,  0.796986222
    777,  -13.6257572, -0.881448627
    778,  -14.5209208,  -2.49582362
    779,   14.5196953,   2.49558425
    780,   13.6244736,  0.879284978
    781,   20.2290649, -0.875986516
    782,   -20.228981,  0.875986755
    783,   19.3930473,  -1.00353789
    784,  -19.3929329,   1.00348699
    785,   -24.845211,    2.4984777
    786,  -25.7298031,    0.8316769
    787,   25.7300072, -0.831206501
    788,    24.845417,  -2.49857211
    789,  -13.6136312,   2.52831864
    790,   13.6134958,  -2.52893281
    791,  -5.64317703,  -2.45654392
    792,  -5.56661987,  0.703585088
    793,   4.87926769,   1.69542491
    794,  -4.85083771,  -2.82988477
    795,  -14.0778751, -0.0516948439
    796,   14.0773888, 0.0512986407
    797,  -5.18829441, -0.597025633
    798,   19.5337658, -0.0798055902
    799,  -19.5336132, 0.0797257125
    800,   18.6826954, -0.617794096
    801,  -18.6825733,  0.617700517
    802,  -13.6084909,   -2.4958396
    803,  -15.4290352,  -2.53365207
    804,   13.6027498,   2.48893142
    805,   15.4287548,   2.53368235
    806,  -23.9381199,   2.54275084
    807,  -25.7669353,   2.49412894
    808,   23.9381981,  -2.54281878
    809,   25.7673378,  -2.49408484
    810,   5.11647081,   2.53596735
    811,  -6.37898159,  0.390457481
    812,  -5.92606926,  -0.72430712
    813,  -6.46085596,    -2.074476
    814,   -6.3403368,   -3.0049727
    815,  -14.0139055,  -3.31997609
    816,   14.0108452,   3.31699681
    817,  -25.3708248,    3.3211937
    818,    25.371067,  -3.32127738
    819,  -12.6842775,  -2.50954866
    820,   12.6772909,   2.49910641
    821,   26.7120876,  -2.49979115
    822,  -26.7115726,   2.49998903
    823,  -6.17915678,   1.08574271
    824,  -6.51879311, -0.397706717
    825,    6.1003623,   2.53811097
    826,  -12.2226219,  -1.70712936
    827,   12.2148352,   1.69915664
    828,  -6.93457603,   -3.4545002
    829,  -27.1956787,   1.67329025
    830,   27.1960297,  -1.67283642
    831,   12.1789627,    3.3135767
    832,  -7.01015329,  0.939694583
    833,  -6.53311348,   1.82996917
    834,  -6.51895666,   -1.1959995
    835,    6.5480876,   1.71622038
    836,   -11.748703,   -2.4947896
    837,  -12.6861076, -0.909218311
    838,    12.683485,  0.904478133
    839,   11.7378559,   2.48496056
    840,  -27.6952763,   2.45840335
    841,  -26.7102089,  0.861509323
    842,   26.7103996, -0.860962987
    843,   27.6957188,   -2.4582274
    844,  -5.67626619,   2.41781282
    845,   7.04148674,   2.51877904
    846,   6.10122776,  0.913954854
    847,  -11.7721338, -0.881110251
    848,   11.7686214,  0.875495493
    849,  -12.1843452,  -3.32175088
    850,  -27.6480255,  0.833688438
    851,  -27.2635632,   3.30714822
    852,   27.2639484,  -3.30712104
    853,   27.6482029, -0.833242416
    854,    -10.83743, -0.809108078
    855,   10.8426924,  0.791804612
    856,  -28.4349957,  0.707062066
    857,   28.4351444, -0.706775248
    858,  -4.96289778,   2.17728662
    859,  -6.50789833,   2.80791211
    860,   6.98808432,  0.922597587
    861,  -12.2432365, -0.0887981877
    862,   12.2421932, 0.0864753351
    863,  -27.1915264, 0.0379144438
    864,   27.1916332, -0.0374759585
    865,    7.8873291,  0.871879637
    866,   6.56105947,  0.279196471
    867,  -27.6729088, -0.748169065
    868,   27.6729469,  0.748440564
    869,   11.9300652,  -0.82139647
    870,  -11.9299374,  0.819230437
    871,  -10.3581247,  -1.64516521
    872,   10.3533077,   1.59331548
    873,  -5.01967192,   2.76135707
    874,  -28.4521141, -0.631300867
    875,   28.4521408,  0.631478727
    876,   8.39411449,   1.62911439
    877,  -11.0534754,  0.796772122
    878,     11.05616, -0.802250922
    879,  -9.86227512, -0.822442114
    880,  -10.8172359,  -2.47678828
    881,   9.92494011,   0.77744329
    882,   10.8069048,   2.45413947
    883,   8.36314964, 0.0898238868
    884,  -10.2847509,   1.43680656
    885,   10.3114214,  -1.42724264
    886,   7.97131729,   2.47981596
    887,   8.77407646,  0.841410339
    888,   8.07431698, -0.853227139
    889,  -10.3030691,  0.196363717
    890,   10.3231297, -0.187294528
    891,  -9.89323807,  -2.48045015
    892,   9.86224556,   2.41746187
    893,   7.20405436,  -0.87826246
    894,  -8.97133732,  -2.50336933
    895,   8.91167164,   2.43241453
    896,  -10.7693167,   2.42814732
    897,   10.7864609,  -2.42764091
    898,   -10.342267,   -3.3110683
    899,   10.3251867,   3.28735805
    900,   6.54020119, -0.484448493
    901,   6.50720167,  -1.49413669
    902,  -11.7240639,    2.4830935
    903,  -8.46175861,  -1.69959581
    904,   11.7280321,  -2.48678255
    905,   12.1615725,  -3.32727575
    906,  -12.1601706,   3.32422447
    907,   6.95418787,  -2.45358944
    908,  -12.2469025,   1.72290707
    909,  -8.90639114, -0.883884072
    910,  -8.03793716,  -2.54720068
    911,   12.2480965,  -1.72568071
    912,   7.74533033,  -2.48595762
    913,  -7.95387125, -0.877734423
    914,  -8.52790451,  -3.34695816
    915,  -7.15012455, -0.836460412
    916,    8.4277668,   -1.9211942
    917,   8.44230366,  -3.09655094
    918,  -8.36346245, -0.101672061
    919,   -7.9576726,  0.707041204
    920,  -5.03022003,   3.77697158
    921,   4.81747484,   3.39403367
    922,  -4.80705309,  -3.57602119
    923,   8.46914101,   3.30376101
    924,  -6.56606913,      3.58234
    925,   6.55321503,  -3.31234121
    926,   6.62193584,   3.35564613
    927,   28.5270634,  -2.39332914
    928,   -28.526741,    2.3934567
    929,  -25.2609119, -0.0593723357
    930,   25.2610817, 0.0597478487
    931,  -8.44401646,   3.34706354
    932,  -7.14372063,  -2.69336939
    933,   13.4883976, -0.827408254
    934,  -10.2945948,   3.31123281
    935,    10.315486,  -3.29163766
    936,  -13.4886074,  0.827118993
    937,  -21.1075459,   2.33700633
    938,   21.1075363,  -2.33694601
    939,    18.288332,   2.35491323
    940,  -18.2882099,  -2.35495496
    941,   12.6689587,  -2.52504468
    942,  -12.6679029,   2.52309108
    943,   9.33917236,  0.815848947
    944,   9.47943497, -0.806477249
    945,  -9.41554356,  0.849616528
    946,   8.80552101, -0.515375912
    947,   9.09969521,  -2.48701024
    948,  -8.72746944,  0.528196633
    949,  -20.4219589,   2.41468763
    950,   20.4219646,  -2.41464591
    951,   5.86034012, -0.884562373
    952,   18.9756737,   2.42551041
    953,  -18.9755745,  -2.42555165
    954,   6.03629541,  -2.45469427
    955,   12.6952686, -0.525022984
    956,  -12.6955433,  0.523858786
    957,   19.1341419,  0.882281482
    958,  -19.1339684, -0.882382751
    959,   28.5582352,   2.38510156
    960,  -28.5582428,  -2.38507462
    961,   -7.2327404,   2.42259479
    962,   23.4730129,   0.32122609
    963,  -23.4729519, -0.321108162
    964,  -8.59358215,   1.23897302
    965,  -12.7034731,    1.1289314
    966,    12.703619,  -1.13030267
    967,   8.82489777,  -1.15982914
    968,   -8.0340023,    2.5383594
    969,    9.8775053,  -2.43521285
    970,  -9.81933022,   2.47413015
    971,   -8.9078083,   2.56683564
    972,   4.50687599,   2.84123707
    973,    -8.498559,   1.94888437
*Element, type=CPS3
   1, 334,   8, 326
   2, 565, 541, 556
   3, 771, 716, 770
   4, 846, 835, 158
   5, 865, 157, 860
   6, 890, 855, 881
   7, 848, 838, 827
   8, 796, 709, 780
   9, 692, 629, 153
  10, 693, 152, 659
  11, 957, 798, 653
  12, 720, 695, 621
  13, 657, 623, 149
  14, 665, 632, 148
  15, 667, 638, 147
  16, 875, 146, 868
  17, 472, 471,  83
  18, 482, 472, 317
  19, 959, 472, 482
  20, 465, 318, 337
  21, 353, 240, 338
  22, 338, 240,  10
  23, 354,  10, 241
  24, 339, 241,  11
  25, 590, 501, 205
  26, 702, 632, 665
  27, 327,   6, 323
  28, 323,   6,   5
  29, 489, 323, 331
  30, 551, 540, 115
  31, 448, 356, 223
  32, 493, 355, 448
  33, 356,  63, 296
  34, 357, 356, 296
  35, 554, 544, 515
  36, 319,   7,   6
  37, 488, 324, 329
  38, 596, 561, 542
  39, 873, 705, 741
  40, 426, 377, 260
  41, 358,  28, 261
  42, 427, 359, 187
  43, 359,  29, 262
  44, 934, 359, 428
  45, 896, 167, 884
  46, 945, 884, 889
  47, 879, 871, 111
  48, 880, 871, 110
  49, 443, 361, 218
  50, 898, 360, 443
  51, 361,  58, 291
  52, 914, 361, 444
  53, 910, 903, 894
  54, 913, 909, 903
  55, 919, 918, 134
  56, 968, 961, 188
  57, 973, 971, 166
  58, 970, 884, 166
  59, 329,   4, 320
  60, 320,   4,   3
  61, 332,   2, 321
  62, 321,   2,   1
  63, 328,   1, 322
  64, 485, 322, 334
  65, 337, 318, 239
  66, 362,  11, 242
  67, 340, 242,  12
  68, 587, 496, 204
  69, 700, 623, 657
  70, 363,  12, 243
  71, 413, 363, 243
  72, 603, 530, 586
  73, 621, 149, 603
  74, 335,  13, 244
  75, 341, 203, 335
  76, 626, 619, 607
  77, 653, 150, 619
  78, 364,  14, 246
  79, 499, 342, 201
  80, 532, 499, 201
  81, 766, 693, 728
  82, 349, 342,  15
  83, 351, 349, 247
  84, 805, 589, 636
  85, 659, 152, 629
  86, 365, 351,  16
  87, 415, 365, 248
  88, 804, 747, 779
  89, 709,  93, 692
  90, 366,  17, 249
  91, 416, 366, 249
  92, 839, 820, 831
  93, 838, 154, 827
  94, 367,  18, 250
  95, 899, 367, 417
  96, 892, 872, 882
  97, 855,  95, 848
  98, 368,  19, 251
  99, 923, 368, 418
 100, 886, 157, 876
 101, 887, 865, 883
 102, 369,  20, 252
 103, 926, 369, 419
 104, 845, 835, 157
 105, 860, 835, 846
 106, 370,  21, 253
 107, 921, 370, 420
 108, 711, 680, 159
 109, 740, 704, 716
 110, 371,  22, 254
 111, 663, 371, 421
 112, 678, 572, 160
 113, 600, 546, 559
 114, 372,  23, 255
 115, 494, 372, 422
 116, 567, 557, 548
 117, 523, 193, 494
 118, 373,  24, 256
 119, 374, 373, 256
 120, 552, 543, 517
 121, 487, 325, 332
 122, 375,  25, 258
 123, 424, 375, 258
 124, 614, 601, 162
 125, 542, 131, 509
 126, 329, 324,   4
 127, 376,  26, 259
 128, 425, 376, 259
 129, 705, 163, 672
 130, 377,  27, 260
 131, 378,  30, 263
 132, 906, 378, 429
 133, 942, 902, 906
 134, 956, 861, 870
 135, 837, 109, 826
 136, 836, 110, 826
 137, 379,  56, 289
 138, 442, 379, 289
 139, 380,  31, 264
 140, 763, 380, 430
 141, 789, 763, 723
 142, 936, 776, 795
 143, 777, 746, 109
 144, 815, 802, 778
 145, 381, 352,  55
 146, 441, 381, 288
 147, 382,  32, 265
 148, 669, 382, 431
 149, 684, 669, 183
 150, 745, 139, 730
 151, 656, 107, 630
 152, 803, 778, 108
 153, 350, 348,  54
 154, 352, 350, 287
 155, 383,  33, 266
 156, 639, 383, 432
 157, 712, 645, 685
 158, 801, 727, 755
 159, 765, 691, 727
 160, 531, 213, 500
 161, 384,  53, 286
 162, 500, 348, 214
 163, 385,  34, 267
 164, 433, 182, 385
 165, 757, 752, 719
 166, 799, 784, 782
 167, 652, 105, 620
 168, 953, 620, 624
 169, 347, 336, 284
 170, 347, 212, 336
 171, 386,  35, 269
 172, 435, 386, 269
 173, 527, 503, 180
 174, 751, 172, 734
 175, 622, 104, 602
 176, 529, 211, 506
 177, 439, 283,  52
 178, 439, 387, 283
 179, 388,  36, 270
 180, 436, 388, 270
 181, 806, 582, 634
 182, 696, 628, 174
 183, 701, 625, 655
 184, 534, 210, 498
 185, 389, 282, 346
 186, 346, 282,  51
 187, 390,  37, 271
 188, 437, 390, 271
 189, 807, 748, 785
 190, 929, 706, 786
 191, 703, 631, 666
 192, 536, 209, 502
 193, 391, 281, 345
 194, 345, 281,  50
 195, 392,  38, 272
 196, 438, 392, 272
 197, 840, 829, 822
 198, 850, 841, 829
 199, 867, 637, 668
 200, 537, 208, 497
 201, 393, 280, 344
 202, 344, 280,  49
 203, 394,  39, 273
 204, 475, 274,  42
 205, 928, 840, 177
 206, 856, 850, 176
 207, 474, 473,  45
 208, 960, 474, 478
 209, 343, 279,  48
 210, 466, 278, 343
 211, 395,  59, 292
 212, 828, 445, 814
 213, 932, 813, 112
 214, 915, 824, 134
 215, 823, 792, 164
 216, 859, 844, 189
 217, 961, 833, 859
 218, 396,  60, 293
 219, 922, 396, 446
 220, 710, 675, 114
 221, 797, 743, 714
 222, 715, 644, 163
 223, 769, 714, 683
 224, 397,  61, 294
 225, 617, 447, 222
 226, 679, 570, 115
 227, 612, 539, 131
 228, 597, 564, 539
 229, 398,  64, 298
 230, 450, 398, 298
 231, 615, 604,  85
 232, 739, 671, 722
 233, 671, 609, 117
 234, 595, 558, 545
 235, 333, 326,   7
 236, 326,   8,   7
 237, 399,  65, 299
 238, 451, 399, 299
 239, 774, 717, 758
 240, 900, 893,  97
 241, 772,  98, 770
 242, 400,  66, 300
 243, 452, 400, 300
 244, 907, 119, 901
 245, 888, 883,  97
 246, 900,  97, 866
 247, 401,  67, 301
 248, 453, 402, 228
 249, 917, 916, 912
 250, 944, 885, 890
 251, 946, 883, 888
 252, 402,  68, 302
 253, 935, 402, 454
 254, 897, 121, 885
 255, 869, 862,  95
 256, 890, 878,  95
 257, 403,  69, 303
 258, 905, 403, 455
 259, 941, 904, 905
 260, 933, 796,  94
 261, 955, 862, 869
 262, 404,  70, 304
 263, 764, 404, 456
 264, 790, 764, 724
 265, 744, 123, 725
 266, 933, 775, 796
 267, 405,  71, 305
 268, 670, 405, 457
 269, 686, 670, 232
 270, 754, 124, 713
 271, 744,  92, 732
 272, 406,  72, 306
 273, 640, 406, 458
 274, 713, 646, 687
 275, 783, 125, 753
 276, 759, 728,  92
 277, 407,  73, 307
 278, 459, 233, 407
 279, 756, 753, 718
 280, 750, 126, 733
 281, 798, 783, 781
 282, 408,  74, 309
 283, 461, 408, 309
 284, 528, 504, 235
 285, 658, 127, 627
 286, 750,  89, 720
 287, 409,  75, 310
 288, 462, 409, 310
 289, 808, 583, 635
 290, 735, 707,  88
 291, 699, 627, 128
 292, 410,  76, 311
 293, 463, 410, 311
 294, 809, 749, 788
 295, 842, 129, 830
 296, 787, 749, 129
 297, 411,  77, 312
 298, 464, 411, 312
 299, 843, 830, 821
 300, 467,  81, 316
 301, 481, 467, 316
 302, 412,  78, 313
 303, 479, 314,  80
 304, 927, 843, 238
 305, 480, 468, 315
 306, 478, 474, 277
 307, 593, 497, 209
 308, 591, 502, 210
 309, 585, 498, 211
 310, 602, 529, 584
 311, 624, 620, 606
 312, 531, 500, 214
 313, 803, 588, 633
 314, 802, 746, 778
 315, 836, 826, 819
 316, 889, 854, 879
 317, 909, 111, 903
 318, 910, 112, 903
 319, 891, 871, 880
 320, 834, 813, 113
 321, 743, 674, 714
 322, 576, 520, 568
 323, 550, 549, 116
 324, 853, 842, 830
 325, 811, 133, 792
 326, 889, 884, 877
 327, 948, 918, 919
 328, 847, 837, 826
 329, 795, 708, 777
 330, 690, 630, 108
 331, 727, 691, 139
 332, 958, 799, 652
 333, 721, 694, 622
 334, 655, 625, 104
 335, 666, 631, 103
 336, 668, 637, 102
 337, 874, 477, 473
 338, 868, 638, 667
 339, 592, 495, 206
 340, 535, 206, 501
 341, 870, 861, 136
 342, 936, 795, 137
 343, 745, 169, 726
 344, 755, 170, 712
 345, 784, 171, 752
 346, 751, 734, 697
 347, 654, 173, 628
 348, 748, 706, 174
 349, 841, 175, 829
 350, 469,  43, 276
 351, 476, 470, 275
 352, 851, 840, 822
 353, 817, 807, 785
 354, 634, 582, 180
 355, 527, 181, 503
 356, 757, 719, 182
 357, 645, 183, 639
 358, 681, 184, 669
 359, 789, 723, 762
 360, 906, 902, 186
 361, 605, 574, 191
 362, 575, 519, 566
 363, 680, 642, 159
 364, 972, 810, 921
 365, 926, 825, 845
 366, 895, 876, 156
 367, 882, 872, 155
 368, 831, 820, 199
 369, 816, 804, 779
 370, 636, 589, 201
 371, 532, 202, 499
 372, 626, 607, 203
 373, 530, 204, 505
 374, 533, 205, 496
 375, 538, 207, 495
 376, 814, 791, 813
 377, 794, 710, 773
 378, 675, 648, 643
 379, 577,  85, 571
 380, 758, 717, 225
 381, 954, 901, 118
 382, 917, 912, 227
 383, 969, 885, 120
 384, 905, 904, 229
 385, 790, 724, 760
 386, 682, 231, 670
 387, 646, 232, 640
 388, 756, 718, 233
 389, 528, 234, 504
 390, 635, 583, 235
 391, 818, 809, 788
 392, 852, 843, 821
 393, 353, 337,   9
 394, 354, 338,  10
 395, 362, 339,  11
 396, 363, 340,  12
 397, 413,  13, 335
 398, 414, 341, 245
 399, 414, 245,  14
 400, 342, 246,  15
 401, 351, 247,  16
 402, 415, 248,  17
 403, 416, 249,  18
 404, 417,  19, 368
 405, 418,  20, 369
 406, 419,  21, 370
 407, 420,  22, 371
 408, 421,  23, 372
 409, 422,  24, 373
 410, 374, 192, 373
 411, 423, 257,  25
 412, 424, 258,  26
 413, 425, 259,  27
 414, 426, 260,  28
 415, 427,  29, 359
 416, 428,  30, 378
 417, 429,  31, 380
 418, 430,  32, 382
 419, 431,  33, 383
 420, 432,  34, 385
 421, 434, 433, 268
 422, 434, 268,  35
 423, 435, 269,  36
 424, 436, 270,  37
 425, 437, 271,  38
 426, 438, 272,  39
 427, 273,  41, 274
 428, 475, 470, 177
 429, 476, 275,  43
 430, 477, 276,  44
 431, 478,  46, 466
 432, 278,  47, 279
 433, 393, 343,  48
 434, 391, 344,  49
 435, 389, 345,  50
 436, 387, 346,  51
 437, 439,  52, 336
 438, 440, 347, 285
 439, 440, 285,  53
 440, 348, 286,  54
 441, 352, 287,  55
 442, 441, 288,  56
 443, 442, 289,  57
 444, 443,  58, 361
 445, 444,  59, 395
 446, 445,  60, 396
 447, 446,  61, 397
 448, 447,  62, 355
 449, 448,  63, 356
 450, 357, 223, 356
 451, 449, 297,  64
 452, 450, 298,  65
 453, 451, 299,  66
 454, 452, 300,  67
 455, 453,  68, 402
 456, 454,  69, 403
 457, 455,  70, 404
 458, 456,  71, 405
 459, 457,  72, 406
 460, 458,  73, 407
 461, 460, 459, 308
 462, 460, 308,  74
 463, 461, 309,  75
 464, 462, 310,  76
 465, 463, 311,  77
 466, 464, 312,  78
 467, 313,  79, 314
 468, 479, 468, 238
 469, 480, 315,  81
 470, 481, 316,  82
 471, 482,  84, 465
 472, 318,  40, 239
 473, 486, 333, 319
 474, 483, 334, 326
 475, 330,   3, 325
 476, 513, 484, 330
 477, 490, 332, 321
 478, 332, 325,   2
 479, 322,   1,   8
 480, 556, 508, 546
 481, 331,   5, 324
 482, 489, 327, 323
 483, 324,   5,   4
 484, 560, 510, 539
 485, 325,   3,   2
 486, 487, 330, 325
 487, 483, 326, 333
 488, 333,   7, 319
 489, 486, 327, 116
 490, 327, 319,   6
 491, 514, 328, 511
 492, 328, 321,   1
 493, 484, 320, 330
 494, 488, 331, 324
 495, 542, 509, 484
 496, 330, 320,   3
 497, 518, 331, 516
 498, 331, 323,   5
 499, 490, 321, 328
 500, 487, 332, 161
 501, 486, 319, 327
 502, 545, 507, 483
 503, 508, 334, 507
 504, 334, 322,   8
 505, 341, 335, 244
 506, 505, 363, 413
 507, 506, 387, 439
 508, 336,  52, 284
 509, 337, 239,   9
 510, 465, 337, 207
 511, 495, 338, 206
 512, 495, 353, 338
 513, 501, 339, 205
 514, 501, 354, 339
 515, 496, 340, 204
 516, 496, 362, 340
 517, 341, 244, 245
 518, 626, 341, 202
 519, 349,  15, 247
 520, 499, 364, 342
 521, 466, 343, 208
 522, 343, 278, 279
 523, 497, 344, 209
 524, 497, 393, 344
 525, 502, 345, 210
 526, 502, 391, 345
 527, 498, 346, 211
 528, 498, 389, 346
 529, 347, 284, 285
 530, 624, 347, 213
 531, 350,  54, 287
 532, 500, 384, 348
 533, 636, 349, 351
 534, 349, 201, 342
 535, 633, 350, 352
 536, 350, 214, 348
 537, 365,  16, 248
 538, 636, 351, 200
 539, 381,  55, 288
 540, 633, 352, 215
 541, 353, 207, 337
 542, 353,   9, 240
 543, 354, 241, 339
 544, 354, 206, 338
 545, 664, 397, 447
 546, 355,  62, 295
 547, 357, 296, 297
 548, 581, 448, 223
 549, 449, 357, 297
 550, 492, 357, 449
 551, 931, 358, 427
 552, 426, 358, 188
 553, 428, 378, 186
 554, 931, 427, 187
 555, 442, 360, 217
 556, 360,  57, 290
 557, 444, 395, 219
 558, 898, 443, 218
 559, 362, 242, 340
 560, 362, 205, 339
 561, 413, 243,  13
 562, 363, 204, 340
 563, 414, 364, 202
 564, 364, 246, 342
 565, 816, 365, 415
 566, 365, 200, 351
 567, 831, 366, 416
 568, 415, 366, 199
 569, 417, 368, 197
 570, 416, 367, 198
 571, 418, 369, 196
 572, 899, 417, 197
 573, 419, 370, 195
 574, 923, 418, 196
 575, 420, 371, 194
 576, 926, 195, 825
 577, 421, 372, 193
 578, 921, 420, 194
 579, 422, 373, 192
 580, 618, 421, 193
 581, 374, 256, 257
 582, 578, 422, 192
 583, 423, 374, 257
 584, 491, 374, 423
 585, 661, 605, 375
 586, 423, 375, 191
 587, 920, 741, 376
 588, 424, 376, 190
 589, 924, 859, 189
 590, 425, 377, 189
 591, 429, 380, 185
 592, 934, 428, 186
 593, 849, 217, 836
 594, 441, 379, 216
 595, 430, 382, 184
 596, 906, 429, 185
 597, 815, 381, 441
 598, 381, 215, 352
 599, 431, 383, 183
 600, 763, 430, 184
 601, 432, 385, 182
 602, 669, 431, 183
 603, 440, 384, 213
 604, 384, 286, 348
 605, 433, 385, 267
 606, 639, 432, 182
 607, 503, 386, 435
 608, 434, 386, 181
 609, 387, 211, 346
 610, 387,  51, 283
 611, 634, 388, 436
 612, 435, 388, 180
 613, 389, 210, 345
 614, 389,  50, 282
 615, 817, 390, 437
 616, 436, 390, 179
 617, 391, 209, 344
 618, 391,  49, 281
 619, 851, 177, 840
 620, 437, 392, 178
 621, 393, 208, 343
 622, 393,  48, 280
 623, 438, 394, 177
 624, 394, 273, 274
 625, 445, 396, 220
 626, 914, 444, 219
 627, 446, 397, 221
 628, 814, 445, 220
 629, 447, 397, 294
 630, 922, 221, 794
 631, 662, 608, 398
 632, 449, 398, 224
 633, 758, 399, 451
 634, 450, 399, 225
 635, 925, 400, 452
 636, 451, 400, 226
 637, 917, 401, 453
 638, 452, 401, 227
 639, 454, 403, 229
 640, 917, 453, 228
 641, 455, 404, 230
 642, 935, 454, 229
 643, 456, 405, 231
 644, 905, 455, 230
 645, 457, 406, 232
 646, 764, 456, 231
 647, 458, 407, 233
 648, 670, 457, 232
 649, 459, 407, 307
 650, 640, 458, 233
 651, 504, 408, 461
 652, 460, 408, 234
 653, 635, 409, 462
 654, 461, 409, 235
 655, 818, 410, 463
 656, 462, 410, 236
 657, 852, 238, 843
 658, 463, 411, 237
 659, 464, 412, 238
 660, 412, 313, 314
 661, 413, 335, 203
 662, 505, 413, 203
 663, 414,  14, 364
 664, 414, 202, 341
 665, 415,  17, 366
 666, 816, 415, 199
 667, 416,  18, 367
 668, 831, 416, 198
 669, 417, 367, 250
 670, 417, 250,  19
 671, 418, 368, 251
 672, 418, 251,  20
 673, 419, 369, 252
 674, 419, 252,  21
 675, 420, 370, 253
 676, 420, 253,  22
 677, 421, 371, 254
 678, 421, 254,  23
 679, 422, 372, 255
 680, 422, 255,  24
 681, 423,  25, 375
 682, 491, 423, 191
 683, 424,  26, 376
 684, 661, 424, 190
 685, 425,  27, 377
 686, 920, 189, 741
 687, 426,  28, 358
 688, 924, 426, 188
 689, 427, 358, 261
 690, 427, 261,  29
 691, 428, 359, 262
 692, 428, 262,  30
 693, 429, 378, 263
 694, 429, 263,  31
 695, 430, 380, 264
 696, 430, 264,  32
 697, 431, 382, 265
 698, 431, 265,  33
 699, 432, 383, 266
 700, 432, 266,  34
 701, 433, 267, 268
 702, 757, 433, 181
 703, 434,  35, 386
 704, 434, 181, 433
 705, 435,  36, 388
 706, 503, 435, 180
 707, 436,  37, 390
 708, 634, 436, 179
 709, 437,  38, 392
 710, 817, 437, 178
 711, 438,  39, 394
 712, 851, 438, 177
 713, 439, 336, 212
 714, 506, 439, 212
 715, 440,  53, 384
 716, 440, 213, 347
 717, 441,  56, 379
 718, 815, 441, 216
 719, 442,  57, 360
 720, 849, 442, 217
 721, 443, 360, 290
 722, 443, 290,  58
 723, 444, 361, 291
 724, 444, 291,  59
 725, 445, 395, 292
 726, 445, 292,  60
 727, 446, 396, 293
 728, 446, 293,  61
 729, 447, 294,  62
 730, 447, 355, 222
 731, 448, 355, 295
 732, 448, 295,  63
 733, 449,  64, 398
 734, 492, 449, 224
 735, 450,  65, 399
 736, 662, 450, 225
 737, 451,  66, 400
 738, 758, 451, 226
 739, 452,  67, 401
 740, 925, 452, 227
 741, 453, 401, 301
 742, 453, 301,  68
 743, 454, 402, 302
 744, 454, 302,  69
 745, 455, 403, 303
 746, 455, 303,  70
 747, 456, 404, 304
 748, 456, 304,  71
 749, 457, 405, 305
 750, 457, 305,  72
 751, 458, 406, 306
 752, 458, 306,  73
 753, 459, 307, 308
 754, 756, 459, 234
 755, 460,  74, 408
 756, 460, 234, 459
 757, 461,  75, 409
 758, 504, 461, 235
 759, 462,  76, 410
 760, 635, 462, 236
 761, 463,  77, 411
 762, 818, 463, 237
 763, 464,  78, 412
 764, 852, 464, 238
 765, 959, 207, 538
 766, 465,  84, 318
 767, 960, 208, 537
 768, 466,  46, 278
 769, 857, 853, 130
 770, 480, 467, 130
 771, 479, 238, 412
 772, 468,  80, 315
 773, 476, 469, 176
 774, 477, 469, 276
 775, 475, 177, 394
 776, 470,  42, 275
 777, 875, 481, 471
 778, 471,  82,  83
 779, 472, 146, 471
 780, 472,  83, 317
 781, 473,  44,  45
 782, 874, 101, 867
 783, 474, 101, 473
 784, 474,  45, 277
 785, 475, 394, 274
 786, 475,  42, 470
 787, 476,  43, 469
 788, 928, 476, 176
 789, 477,  44, 473
 790, 856, 477, 145
 791, 478, 277,  46
 792, 478, 466, 208
 793, 479, 412, 314
 794, 479,  80, 468
 795, 480,  81, 467
 796, 927, 480, 130
 797, 481,  82, 471
 798, 857, 481,  86
 799, 482, 317,  84
 800, 482, 465, 207
 801, 512, 483, 333
 802, 545, 483, 512
 803, 542, 484, 513
 804, 484, 329, 320
 805, 556, 485, 508
 806, 485, 328, 322
 807, 554,  85, 544
 808, 515, 512, 333
 809, 552, 162, 543
 810, 517, 513, 330
 811, 510, 329, 509
 812, 560, 488, 510
 813, 521, 489, 518
 814, 489, 116, 327
 815, 525, 490, 514
 816, 490, 161, 332
 817, 519, 491, 191
 818, 575, 374, 491
 819, 520, 492, 224
 820, 576, 357, 492
 821, 569, 555, 550
 822, 493, 222, 355
 823, 578, 523, 494
 824, 494, 193, 372
 825, 592, 538, 495
 826, 495, 207, 353
 827, 587, 533, 496
 828, 496, 205, 362
 829, 593, 537, 497
 830, 497, 208, 393
 831, 585, 534, 498
 832, 498, 210, 389
 833, 589, 532, 201
 834, 499, 202, 364
 835, 588, 531, 214
 836, 500, 213, 384
 837, 590, 535, 501
 838, 501, 206, 354
 839, 591, 536, 502
 840, 502, 209, 391
 841, 582, 527, 180
 842, 503, 181, 386
 843, 583, 528, 235
 844, 504, 234, 408
 845, 586, 505, 203
 846, 505, 204, 363
 847, 584, 506, 212
 848, 506, 211, 387
 849, 508, 507, 100
 850, 507, 334, 483
 851, 546, 508, 100
 852, 508, 485, 334
 853, 510, 509, 131
 854, 509, 329, 484
 855, 539, 510, 131
 856, 510, 488, 329
 857, 541, 514, 511
 858, 511, 328, 485
 859, 515, 333, 486
 860, 563, 512, 544
 861, 517, 330, 487
 862, 562, 513, 543
 863, 553, 541, 160
 864, 514, 490, 328
 865, 524, 486, 116
 866, 554, 515, 524
 867, 540, 518, 516
 868, 516, 331, 488
 869, 522, 487, 161
 870, 552, 517, 522
 871, 551, 518, 540
 872, 518, 489, 331
 873, 574, 519, 191
 874, 566, 547, 557
 875, 577, 520, 224
 876, 568, 549, 555
 877, 521, 116, 489
 878, 570, 526, 569
 879, 522, 517, 487
 880, 547, 522, 161
 881, 548, 547, 161
 882, 572, 523, 567
 883, 524, 515, 486
 884, 549, 524, 116
 885, 525, 161, 490
 886, 553, 514, 541
 887, 526, 222, 493
 888, 581, 526, 493
 889, 734, 527, 173
 890, 937, 527, 734
 891, 733, 528, 127
 892, 938, 528, 733
 893, 584, 529, 506
 894, 585, 529, 104
 895, 586, 530, 505
 896, 587, 530, 149
 897, 729, 531, 107
 898, 940, 531, 729
 899, 731, 532, 152
 900, 939, 532, 731
 901, 623, 533, 587
 902, 590, 533, 148
 903, 625, 534, 585
 904, 591, 534, 103
 905, 632, 535, 590
 906, 592, 535, 147
 907, 631, 536, 591
 908, 593, 536, 102
 909, 637, 537, 593
 910, 960, 537, 101
 911, 638, 538, 592
 912, 959, 538, 146
 913, 564, 540, 560
 914, 612, 131, 561
 915, 560, 540, 516
 916, 570, 551, 115
 917, 565, 556, 546
 918, 572, 553, 160
 919, 601, 562, 162
 920, 611, 596, 610
 921, 562, 543, 162
 922, 543, 513, 517
 923, 563, 545, 512
 924, 544, 512, 515
 925, 545, 100, 507
 926, 604, 563,  85
 927, 559, 100, 558
 928, 600, 598, 565
 929, 548, 161, 525
 930, 575, 566, 557
 931, 567, 548, 525
 932, 578, 557, 567
 933, 550, 116, 521
 934, 576, 568, 555
 935, 569, 550, 521
 936, 581, 555, 569
 937, 570, 569, 551
 938, 551, 521, 518
 939, 566, 552, 522
 940, 573, 552, 566
 941, 572, 567, 553
 942, 553, 525, 514
 943, 568, 554, 524
 944, 571, 554, 568
 945, 576, 555, 223
 946, 555, 549, 550
 947, 556, 541, 511
 948, 556, 511, 485
 949, 575, 557, 192
 950, 557, 547, 548
 951, 594, 559, 558
 952, 558, 100, 545
 953, 641, 600, 559
 954, 559, 546, 100
 955, 560, 516, 488
 956, 564, 560, 539
 957, 651, 611, 132
 958, 561, 131, 542
 959, 601, 596, 562
 960, 562, 542, 513
 961, 563, 544,  85
 962, 604, 595, 563
 963, 599, 564, 597
 964, 564, 115, 540
 965, 600, 565, 546
 966, 565, 160, 541
 967, 573, 566, 519
 968, 566, 522, 547
 969, 567, 525, 553
 970, 578, 567, 523
 971, 571, 568, 520
 972, 568, 524, 549
 973, 569, 521, 551
 974, 581, 569, 526
 975, 679, 599, 643
 976, 580, 526, 570
 977, 577, 571, 520
 978, 571,  85, 554
 979, 678, 598, 642
 980, 579, 523, 572
 981, 574, 573, 519
 982, 573, 162, 552
 983, 649, 614, 574
 984, 574, 162, 573
 985, 575, 192, 374
 986, 575, 491, 519
 987, 576, 223, 357
 988, 576, 492, 520
 989, 608, 577, 224
 990, 650, 615, 577
 991, 578, 494, 422
 992, 578, 192, 557
 993, 680, 618, 647
 994, 579, 193, 523
 995, 675, 617, 648
 996, 580, 222, 526
 997, 581, 493, 448
 998, 581, 223, 555
 999, 806, 785, 174
1000, 582, 173, 527
1001, 808, 788, 128
1002, 583, 127, 528
1003, 606, 584, 212
1004, 606, 602, 584
1005, 585, 211, 529
1006, 625, 585, 104
1007, 607, 586, 203
1008, 607, 603, 586
1009, 587, 204, 530
1010, 623, 587, 149
1011, 588, 107, 531
1012, 633, 588, 214
1013, 805, 779, 153
1014, 589, 152, 532
1015, 590, 205, 533
1016, 632, 590, 148
1017, 591, 210, 534
1018, 631, 591, 103
1019, 592, 206, 535
1020, 638, 592, 147
1021, 593, 209, 536
1022, 637, 593, 102
1023, 660, 558, 595
1024, 704, 616, 641
1025, 595, 545, 563
1026, 609, 595, 604
1027, 596, 542, 562
1028, 644, 611, 610
1029, 613, 597, 612
1030, 613, 599, 597
1031, 642, 598, 616
1032, 598, 160, 565
1033, 643, 599, 613
1034, 599, 115, 564
1035, 641, 559, 594
1036, 616, 598, 600
1037, 614, 162, 574
1038, 614, 610, 601
1039, 622, 602, 105
1040, 602, 104, 529
1041, 621, 603, 150
1042, 603, 149, 530
1043, 615,  85, 577
1044, 615, 609, 604
1045, 605, 191, 375
1046, 705, 672, 676
1047, 606, 105, 602
1048, 624, 606, 212
1049, 952, 619, 626
1050, 607, 150, 603
1051, 608, 224, 398
1052, 717, 673, 677
1053, 671, 660, 609
1054, 660, 595, 609
1055, 644, 610, 163
1056, 610, 596, 601
1057, 651, 613, 612
1058, 611, 561, 596
1059, 612, 597, 539
1060, 612, 561, 611
1061, 674, 613, 651
1062, 643, 613, 114
1063, 649, 574, 605
1064, 672, 610, 614
1065, 650, 577, 608
1066, 673, 609, 615
1067, 641, 616, 600
1068, 642, 616, 159
1069, 664, 617, 221
1070, 617, 222, 580
1071, 663, 618, 194
1072, 618, 193, 579
1073, 957, 619, 151
1074, 619, 150, 607
1075, 958, 620, 106
1076, 620, 105, 606
1077, 689, 150, 653
1078, 720, 621, 689
1079, 688, 105, 652
1080, 721, 622, 688
1081, 695, 657, 149
1082, 623, 148, 533
1083, 624, 212, 347
1084, 953, 624, 213
1085, 694, 655, 104
1086, 625, 103, 534
1087, 626, 203, 341
1088, 952, 626, 202
1089, 699, 658, 627
1090, 627, 127, 583
1091, 696, 654, 628
1092, 628, 173, 582
1093, 692, 659, 629
1094, 629, 152, 589
1095, 690, 656, 630
1096, 630, 107, 588
1097, 701, 666, 103
1098, 631, 102, 536
1099, 700, 665, 148
1100, 632, 147, 535
1101, 633, 214, 350
1102, 803, 633, 215
1103, 634, 180, 388
1104, 806, 634, 179
1105, 635, 235, 409
1106, 808, 635, 236
1107, 636, 201, 349
1108, 805, 636, 200
1109, 703, 668, 102
1110, 637, 101, 537
1111, 702, 667, 147
1112, 638, 146, 538
1113, 685, 639, 182
1114, 639, 183, 383
1115, 687, 640, 233
1116, 640, 232, 406
1117, 641, 594,  99
1118, 704, 641,  99
1119, 680, 647, 642
1120, 678, 642, 647
1121, 675, 643, 114
1122, 679, 643, 648
1123, 715, 683, 644
1124, 644, 132, 611
1125, 685, 645, 639
1126, 684, 645, 170
1127, 687, 646, 640
1128, 686, 646, 124
1129, 647, 618, 579
1130, 678, 647, 579
1131, 648, 617, 580
1132, 679, 648, 580
1133, 676, 605, 661
1134, 676, 672, 649
1135, 677, 608, 662
1136, 677, 673, 650
1137, 651, 612, 611
1138, 674, 651, 132
1139, 958, 652, 620
1140, 688, 652, 141
1141, 957, 653, 619
1142, 689, 653,  90
1143, 736, 654, 696
1144, 697, 654, 142
1145, 963, 736, 143
1146, 963, 701, 655
1147, 730, 656, 690
1148, 691, 656, 139
1149, 962, 735,  88
1150, 962, 700, 657
1151, 735, 658, 699
1152, 698, 658,  89
1153, 732, 659, 692
1154, 693, 659,  92
1155, 660,  99, 594
1156, 660, 594, 558
1157, 661, 375, 424
1158, 676, 661, 190
1159, 662, 398, 450
1160, 677, 662, 225
1161, 663, 194, 371
1162, 663, 421, 618
1163, 664, 221, 397
1164, 664, 447, 617
1165, 930, 665,  88
1166, 930, 702, 665
1167, 929, 666, 143
1168, 929, 703, 666
1169, 864, 667,  87
1170, 868, 667, 864
1171, 863, 668, 144
1172, 867, 668, 863
1173, 684, 681, 669
1174, 669, 184, 382
1175, 686, 682, 670
1176, 670, 231, 405
1177, 722, 671, 117
1178, 671,  99, 660
1179, 672, 163, 610
1180, 672, 614, 649
1181, 673, 117, 609
1182, 673, 615, 650
1183, 714, 674, 132
1184, 674, 114, 613
1185, 743, 710, 114
1186, 675, 221, 617
1187, 676, 649, 605
1188, 705, 676, 190
1189, 677, 650, 608
1190, 717, 677, 225
1191, 678, 579, 572
1192, 678, 160, 598
1193, 679, 580, 570
1194, 679, 115, 599
1195, 740, 711, 159
1196, 680, 194, 618
1197, 726, 681, 684
1198, 723, 681, 169
1199, 725, 682, 686
1200, 724, 682, 123
1201, 737, 683, 715
1202, 683, 132, 644
1203, 684, 183, 645
1204, 726, 684, 170
1205, 719, 685, 182
1206, 719, 712, 685
1207, 686, 232, 646
1208, 725, 686, 124
1209, 718, 687, 233
1210, 718, 713, 687
1211, 721, 688, 141
1212, 688, 622, 105
1213, 720, 689,  90
1214, 689, 621, 150
1215, 708, 690, 108
1216, 730, 690, 138
1217, 765, 729, 691
1218, 691, 107, 656
1219, 709, 692, 153
1220, 732, 692,  93
1221, 728, 693,  92
1222, 766, 731, 693
1223, 694, 142, 655
1224, 694, 104, 622
1225, 695,  89, 657
1226, 695, 149, 621
1227, 706, 696, 174
1228, 736, 696, 706
1229, 697, 173, 654
1230, 751, 142, 721
1231, 750, 733, 698
1232, 698, 127, 658
1233, 707, 699, 128
1234, 735, 699, 707
1235, 700,  88, 665
1236, 700, 148, 623
1237, 701, 143, 666
1238, 701, 103, 625
1239, 702,  87, 667
1240, 702, 147, 632
1241, 703, 144, 668
1242, 703, 102, 631
1243, 716, 704,  99
1244, 704, 159, 616
1245, 741, 705, 190
1246, 858, 844, 164
1247, 786, 748, 175
1248, 736, 706, 143
1249, 749, 707, 128
1250, 930, 707, 787
1251, 708, 138, 690
1252, 746, 708, 108
1253, 747, 709, 153
1254, 780, 747, 154
1255, 773, 710, 743
1256, 710, 221, 675
1257, 810, 711, 793
1258, 711, 194, 680
1259, 761, 727, 139
1260, 712, 170, 645
1261, 800, 728, 754
1262, 713, 124, 646
1263, 714, 132, 683
1264, 797, 714, 769
1265, 738, 715, 163
1266, 738, 737, 715
1267, 739,  99, 671
1268, 771, 770,  98
1269, 774, 118, 742
1270, 717, 117, 673
1271, 950, 753, 756
1272, 718, 125, 713
1273, 949, 752, 757
1274, 719, 171, 712
1275, 750, 720,  90
1276, 720,  89, 695
1277, 751, 721, 141
1278, 721, 142, 694
1279, 742, 722, 117
1280, 772, 722, 742
1281, 723, 184, 681
1282, 762, 723, 169
1283, 724, 231, 682
1284, 760, 724, 123
1285, 767, 744, 725
1286, 725, 123, 682
1287, 768, 745, 726
1288, 726, 169, 681
1289, 761, 755, 727
1290, 958, 765, 140
1291, 759, 754, 728
1292, 957, 766,  91
1293, 940, 729, 106
1294, 729, 107, 691
1295, 745, 730, 138
1296, 730, 139, 656
1297, 939, 731, 151
1298, 731, 152, 693
1299, 744, 732,  93
1300, 732,  92, 659
1301, 938, 733, 126
1302, 733, 127, 698
1303, 937, 734, 172
1304, 734, 173, 697
1305, 962,  88, 700
1306, 735,  89, 658
1307, 963, 143, 701
1308, 736, 142, 654
1309, 792, 737, 164
1310, 792, 769, 737
1311, 738, 164, 737
1312, 738, 163, 705
1313, 772, 770, 739
1314, 739, 716,  99
1315, 793, 740, 771
1316, 740, 159, 704
1317, 741, 190, 376
1318, 873, 189, 844
1319, 772, 742, 118
1320, 742, 117, 717
1321, 773, 743, 113
1322, 743, 114, 674
1323, 775, 744,  93
1324, 767, 725, 124
1325, 776, 745, 138
1326, 768, 726, 170
1327, 778, 746, 108
1328, 837, 777, 109
1329, 779, 747, 153
1330, 838, 780, 154
1331, 785, 748, 174
1332, 841, 786, 175
1333, 788, 749, 128
1334, 842, 787, 129
1335, 750, 698,  89
1336, 781, 750,  90
1337, 751, 697, 142
1338, 782, 751, 141
1339, 782, 752, 172
1340, 752, 171, 719
1341, 781, 753, 126
1342, 753, 125, 718
1343, 754, 713, 125
1344, 800, 125, 783
1345, 755, 712, 171
1346, 801, 171, 784
1347, 756, 233, 459
1348, 950, 756, 234
1349, 757, 182, 433
1350, 949, 757, 181
1351, 758, 225, 399
1352, 774, 758, 226
1353, 767, 759,  92
1354, 759, 124, 754
1355, 775, 760, 123
1356, 941, 790, 122
1357, 768, 761, 139
1358, 761, 170, 755
1359, 776, 762, 169
1360, 942, 789, 168
1361, 763, 185, 380
1362, 763, 184, 723
1363, 764, 230, 404
1364, 764, 231, 724
1365, 765, 727, 140
1366, 765, 106, 729
1367, 766, 728,  91
1368, 766, 151, 731
1369, 767, 124, 759
1370, 767,  92, 744
1371, 768, 170, 761
1372, 768, 139, 745
1373, 769, 683, 737
1374, 797, 769, 133
1375, 846, 771,  98
1376, 770, 716, 739
1377, 793, 771, 158
1378, 771, 740, 716
1379, 772, 739, 722
1380, 951, 772, 118
1381, 791, 773, 113
1382, 794, 773, 791
1383, 954, 774, 226
1384, 774, 742, 717
1385, 775, 123, 744
1386, 796, 775,  93
1387, 776, 169, 745
1388, 795, 776, 138
1389, 795, 777, 137
1390, 777, 708, 746
1391, 803, 108, 630
1392, 815, 778, 215
1393, 805, 153, 629
1394, 816, 779, 200
1395, 796, 780,  94
1396, 780, 709, 747
1397, 781, 126, 750
1398, 798, 781,  90
1399, 782, 172, 751
1400, 799, 782, 141
1401, 800, 783, 798
1402, 783, 753, 781
1403, 801, 784, 799
1404, 784, 752, 782
1405, 806, 174, 628
1406, 817, 785, 179
1407, 929, 786, 144
1408, 786, 706, 748
1409, 930, 787,  87
1410, 787, 707, 749
1411, 808, 128, 627
1412, 818, 788, 236
1413, 789, 762, 168
1414, 789, 185, 763
1415, 790, 760, 122
1416, 790, 230, 764
1417, 794, 791, 220
1418, 813, 791, 113
1419, 823, 811, 792
1420, 792, 133, 769
1421, 810, 793, 158
1422, 793, 711, 740
1423, 922, 794, 220
1424, 794, 221, 710
1425, 795, 138, 708
1426, 956, 936, 137
1427, 796,  93, 709
1428, 955, 933,  94
1429, 812, 797, 133
1430, 797, 113, 743
1431, 798,  90, 653
1432, 800, 798,  91
1433, 799, 141, 652
1434, 801, 799, 140
1435, 800,  91, 728
1436, 800, 754, 125
1437, 801, 140, 727
1438, 801, 755, 171
1439, 819, 802, 216
1440, 802, 109, 746
1441, 803, 630, 588
1442, 803, 215, 778
1443, 820, 804, 199
1444, 804, 154, 747
1445, 805, 629, 589
1446, 805, 200, 779
1447, 806, 628, 582
1448, 806, 179, 785
1449, 822, 807, 178
1450, 807, 175, 748
1451, 808, 627, 583
1452, 808, 236, 788
1453, 821, 809, 237
1454, 809, 129, 749
1455, 825, 810, 158
1456, 921, 810, 195
1457, 832, 811, 823
1458, 824, 812, 133
1459, 812, 113, 797
1460, 824, 133, 811
1461, 834, 113, 812
1462, 932, 814, 813
1463, 932, 828, 814
1464, 814, 220, 791
1465, 815, 215, 381
1466, 815, 216, 802
1467, 816, 200, 365
1468, 816, 199, 804
1469, 817, 179, 390
1470, 817, 178, 807
1471, 818, 236, 410
1472, 818, 237, 809
1473, 819, 109, 802
1474, 849, 836, 819
1475, 839, 155, 827
1476, 820, 154, 804
1477, 843, 130, 830
1478, 821, 129, 809
1479, 840, 176, 829
1480, 822, 175, 807
1481, 833, 823, 164
1482, 833, 832, 823
1483, 824, 811, 134
1484, 915, 913, 112
1485, 825, 195, 810
1486, 835, 825, 158
1487, 847, 826, 110
1488, 826, 109, 819
1489, 848, 827, 155
1490, 827, 154, 820
1491, 828, 219, 395
1492, 828, 395, 445
1493, 850, 829, 176
1494, 829, 175, 822
1495, 853, 830, 130
1496, 830, 129, 821
1497, 831, 199, 366
1498, 839, 831, 198
1499, 919, 832, 165
1500, 832, 134, 811
1501, 833, 165, 832
1502, 844, 833, 164
1503, 834, 112, 813
1504, 834, 812, 824
1505, 846, 158, 771
1506, 886, 845, 157
1507, 849, 819, 216
1508, 880, 836, 217
1509, 861, 837, 847
1510, 837, 137, 777
1511, 862, 838, 848
1512, 838,  94, 780
1513, 882, 839, 198
1514, 839, 827, 820
1515, 851, 822, 178
1516, 928, 177, 470
1517, 863, 841, 850
1518, 841, 144, 786
1519, 864, 842, 853
1520, 842,  87, 787
1521, 852, 821, 237
1522, 927, 238, 468
1523, 858, 164, 738
1524, 924, 189, 377
1525, 926, 845, 196
1526, 845, 825, 835
1527, 866, 846,  98
1528, 866, 860, 846
1529, 854, 847, 110
1530, 861, 847, 136
1531, 855, 848, 155
1532, 862, 848,  95
1533, 849, 216, 379
1534, 849, 379, 442
1535, 856, 176, 469
1536, 863, 850, 145
1537, 851, 178, 392
1538, 851, 392, 438
1539, 852, 237, 411
1540, 852, 411, 464
1541, 857, 130, 467
1542, 864, 853,  86
1543, 854, 136, 847
1544, 871, 854, 110
1545, 872, 855, 155
1546, 881, 872, 156
1547, 856, 469, 477
1548, 856, 145, 850
1549, 857, 467, 481
1550, 857,  86, 853
1551, 858, 738, 705
1552, 873, 858, 705
1553, 961, 859, 188
1554, 859, 833, 844
1555, 865, 860,  97
1556, 860, 157, 835
1557, 877, 870, 136
1558, 861, 137, 837
1559, 878, 869,  95
1560, 862,  94, 838
1561, 867, 863, 145
1562, 863, 144, 841
1563, 868, 864,  86
1564, 864,  87, 842
1565, 883, 865,  97
1566, 887, 883,  96
1567, 951, 901, 900
1568, 866,  97, 860
1569, 874, 867, 145
1570, 867, 101, 637
1571, 875, 868,  86
1572, 868, 146, 638
1573, 911, 869, 121
1574, 966, 869, 911
1575, 908, 870, 167
1576, 965, 870, 908
1577, 880, 110, 836
1578, 909, 879, 111
1579, 882, 155, 839
1580, 943, 156, 887
1581, 873, 741, 189
1582, 873, 844, 858
1583, 874, 145, 477
1584, 874, 473, 101
1585, 875,  86, 481
1586, 875, 471, 146
1587, 895, 886, 876
1588, 876, 157, 865
1589, 877, 167, 870
1590, 889, 877, 136
1591, 890, 885, 878
1592, 878, 121, 869
1593, 889, 879, 135
1594, 879, 854, 871
1595, 898, 880, 217
1596, 898, 891, 880
1597, 890, 881,  96
1598, 881, 855, 872
1599, 899, 882, 198
1600, 899, 892, 882
1601, 893, 888,  97
1602, 943, 887,  96
1603, 970, 896, 884
1604, 884, 167, 877
1605, 969, 947, 228
1606, 885, 121, 878
1607, 923, 886, 895
1608, 886, 196, 845
1609, 887, 156, 876
1610, 887, 876, 865
1611, 916, 888, 119
1612, 967, 944, 946
1613, 889, 136, 854
1614, 945, 889, 135
1615, 890,  95, 855
1616, 944, 890,  96
1617, 894, 891, 218
1618, 891, 111, 871
1619, 895, 892, 197
1620, 892, 156, 872
1621, 901, 893, 900
1622, 893, 119, 888
1623, 894, 111, 891
1624, 914, 910, 894
1625, 895, 156, 892
1626, 923, 895, 197
1627, 970, 934, 896
1628, 902, 896, 186
1629, 969, 935, 897
1630, 904, 897, 229
1631, 898, 217, 360
1632, 898, 218, 891
1633, 899, 198, 367
1634, 899, 197, 892
1635, 900, 866,  98
1636, 951, 900,  98
1637, 954, 907, 901
1638, 901, 119, 893
1639, 942, 908, 902
1640, 902, 167, 896
1641, 913, 903, 112
1642, 903, 111, 894
1643, 941, 911, 904
1644, 904, 121, 897
1645, 905, 229, 403
1646, 941, 905, 230
1647, 906, 186, 378
1648, 942, 906, 185
1649, 954, 925, 907
1650, 912, 907, 227
1651, 965, 956, 870
1652, 908, 167, 902
1653, 918, 909, 913
1654, 909, 135, 879
1655, 914, 894, 218
1656, 932, 910, 219
1657, 966, 955, 869
1658, 911, 121, 904
1659, 947, 916, 917
1660, 912, 119, 907
1661, 915, 112, 834
1662, 918, 913, 134
1663, 914, 218, 361
1664, 914, 219, 910
1665, 915, 834, 824
1666, 915, 134, 913
1667, 967, 946, 888
1668, 916, 119, 912
1669, 917, 227, 401
1670, 947, 917, 228
1671, 919, 134, 832
1672, 918, 135, 909
1673, 964, 919, 165
1674, 964, 945, 948
1675, 920, 376, 425
1676, 920, 425, 189
1677, 972, 921, 194
1678, 921, 195, 370
1679, 922, 220, 396
1680, 922, 446, 221
1681, 923, 197, 368
1682, 923, 196, 886
1683, 924, 377, 426
1684, 924, 188, 859
1685, 925, 227, 907
1686, 925, 226, 400
1687, 926, 196, 369
1688, 926, 419, 195
1689, 927, 468, 480
1690, 927, 130, 843
1691, 928, 470, 476
1692, 928, 176, 840
1693, 929, 143, 706
1694, 929, 144, 703
1695, 930,  88, 707
1696, 930,  87, 702
1697, 971, 187, 970
1698, 931, 188, 358
1699, 932, 112, 910
1700, 932, 219, 828
1701, 933, 122, 760
1702, 933, 760, 775
1703, 934, 186, 896
1704, 934, 187, 359
1705, 935, 229, 897
1706, 935, 228, 402
1707, 936, 168, 762
1708, 936, 762, 776
1709, 949, 937, 172
1710, 937, 181, 527
1711, 950, 938, 126
1712, 938, 234, 528
1713, 952, 939, 151
1714, 939, 202, 532
1715, 953, 940, 106
1716, 940, 213, 531
1717, 941, 230, 790
1718, 941, 122, 911
1719, 942, 185, 789
1720, 942, 168, 908
1721, 943,  96, 881
1722, 943, 881, 156
1723, 946, 944,  96
1724, 944, 120, 885
1725, 948, 945, 135
1726, 945, 166, 884
1727, 946,  96, 883
1728, 967, 888, 916
1729, 969, 228, 935
1730, 947, 120, 916
1731, 948, 135, 918
1732, 964, 948, 919
1733, 949, 181, 937
1734, 949, 172, 752
1735, 950, 234, 938
1736, 950, 126, 753
1737, 951,  98, 772
1738, 951, 118, 901
1739, 952, 202, 939
1740, 952, 151, 619
1741, 953, 213, 940
1742, 953, 106, 620
1743, 954, 118, 774
1744, 954, 226, 925
1745, 966, 933, 955
1746, 955,  94, 862
1747, 965, 936, 956
1748, 956, 137, 861
1749, 957, 151, 766
1750, 957,  91, 798
1751, 958, 106, 765
1752, 958, 140, 799
1753, 959, 146, 472
1754, 959, 482, 207
1755, 960, 101, 474
1756, 960, 478, 208
1757, 968, 188, 931
1758, 961, 165, 833
1759, 962, 657,  89
1760, 962,  89, 735
1761, 963, 655, 142
1762, 963, 142, 736
1763, 973, 165, 968
1764, 964, 166, 945
1765, 965, 908, 168
1766, 965, 168, 936
1767, 966, 911, 122
1768, 966, 122, 933
1769, 967, 916, 120
1770, 967, 120, 944
1771, 968, 165, 961
1772, 971, 968, 931
1773, 969, 897, 885
1774, 969, 120, 947
1775, 971, 970, 166
1776, 970, 187, 934
1777, 971, 931, 187
1778, 973, 166, 964
1779, 972, 194, 711
1780, 972, 711, 810
1781, 973, 964, 165
1782, 973, 968, 971
*Nset, nset=_PickedSet2, internal, generate
   1,  973,    1
*Elset, elset=_PickedSet2, internal, generate
    1,  1782,     1
** Section: Section-1
*Solid Section, elset=_PickedSet2, material=Material-1
1.,
*End Part
**  
**
** ASSEMBLY
**
*Assembly, name=Assembly
**  
*Instance, name=plate-1, part=plate
*End Instance
**  
*Nset, nset=LeftEdgeSet, instance=plate-1
  41,  42,  43,  44,  45,  46,  47, 274, 275, 276, 277, 278
*Elset, elset=LeftEdgeSet, instance=plate-1
 204, 350, 427, 429, 430, 432, 768, 776, 781, 784, 791
*Elset, elset=_LoadSurface_S2, internal, instance=plate-1
 300, 303, 467, 469, 470, 766, 772, 778, 780, 799
*Elset, elset=_LoadSurface_S1, internal, instance=plate-1
 472,
*Surface, type=ELEMENT, name=LoadSurface
_LoadSurface_S2, S2
_LoadSurface_S1, S1
*End Assembly
** 
** MATERIALS
** 
*Material, name=Material-1
*Elastic
 2.9e+07, 0.3
** 
** BOUNDARY CONDITIONS
** 
** Name: BC-LeftEdge Type: Displacement/Rotation
*Boundary
LeftEdgeSet, 1, 1
LeftEdgeSet, 2, 2
** ----------------------------------------------------------------
** 
** STEP: Step-1
** 
*Step, name=Step-1, nlgeom=NO
*Static
1., 1., 1e-05, 1.
** 
** LOADS
** 
** Name: Load-1   Type: Pressure
*Dsload
LoadSurface, P, -1000.
** 
** OUTPUT REQUESTS
** 
*Restart, write, frequency=0
** 
** FIELD OUTPUT: F-Output-1
** 
*Output, field, variable=PRESELECT
** 
** HISTORY OUTPUT: H-Output-1
** 
*Output, history, variable=PRESELECT
*End Step
