*Heading
** Job name: plate_ellipse84__1000 Model name: PlateModel
** Generated by: Abaqus/CAE 2022
*Preprint, echo=NO, model=NO, history=NO, contact=NO
**
** PARTS
**
*Part, name=plate
*Node
      1,   3.75205398,  0.693197429
      2,   3.14095807,   1.23838425
      3,   1.61251664,   1.83028615
      4, -0.0225312505,   1.99996829
      5,  -1.95234668,   1.74559033
      6,  -2.86240435,   1.39701843
      7,  -3.64553833,  0.823111594
      8,  -3.99898529, 0.0450473651
      9,   -3.7819562, -0.651307821
     10,  -2.44794106,  -1.58173835
     11,  -1.65898955,  -1.81987321
     12, -0.0225312505,  -1.99996829
     13,   1.61251664,  -1.83028615
     14,   3.14095807,  -1.23838425
     15,   3.75205398, -0.693197429
     16,           4.,           0.
     17,   28.2089558,           5.
     18,   26.4179096,           5.
     19,   24.6268654,           5.
     20,   22.8358212,           5.
     21,   21.0447769,           5.
     22,   18.3582096,           5.
     23,   16.5671635,           5.
     24,   14.7761192,           5.
     25,    12.985075,           5.
     26,   11.1940298,           5.
     27,   9.40298462,           5.
     28,   7.61194038,           5.
     29,   5.82089567,           5.
     30,   4.02985096,           5.
     31,   2.23880601,           5.
     32,  0.447761208,           5.
     33,  -2.23880601,           5.
     34,  -4.02985096,           5.
     35,  -5.82089567,           5.
     36,  -7.61194038,           5.
     37,  -9.40298462,           5.
     38,  -11.1940298,           5.
     39,   -12.985075,           5.
     40,  -14.7761192,           5.
     41,  -16.5671635,           5.
     42,  -18.3582096,           5.
     43,  -21.0447769,           5.
     44,  -22.8358212,           5.
     45,  -24.6268654,           5.
     46,  -26.4179096,           5.
     47,  -28.2089558,           5.
     48,          30.,           5.
     49,         -30.,           5.
     50,         -30.,   3.18181825
     51,         -30.,   1.36363637
     52,         -30., -0.454545468
     53,         -30.,  -1.36363637
     54,         -30.,  -3.18181825
     55,         -30.,          -5.
     56,  -28.2089558,          -5.
     57,  -26.4179096,          -5.
     58,  -24.6268654,          -5.
     59,  -22.8358212,          -5.
     60,  -21.0447769,          -5.
     61,  -18.3582096,          -5.
     62,  -16.5671635,          -5.
     63,  -14.7761192,          -5.
     64,   -12.985075,          -5.
     65,  -11.1940298,          -5.
     66,  -9.40298462,          -5.
     67,  -7.61194038,          -5.
     68,  -5.82089567,          -5.
     69,  -4.02985096,          -5.
     70,  -2.23880601,          -5.
     71, -0.447761208,          -5.
     72,   2.23880601,          -5.
     73,   4.02985096,          -5.
     74,   5.82089567,          -5.
     75,   7.61194038,          -5.
     76,   9.40298462,          -5.
     77,   11.1940298,          -5.
     78,    12.985075,          -5.
     79,   14.7761192,          -5.
     80,   16.5671635,          -5.
     81,   18.3582096,          -5.
     82,   21.0447769,          -5.
     83,   22.8358212,          -5.
     84,   24.6268654,          -5.
     85,   26.4179096,          -5.
     86,   28.2089558,          -5.
     87,          30.,          -5.
     88,          30.,  -3.18181825
     89,          30.,  -1.36363637
     90,          30.,  0.454545468
     91,          30.,   1.36363637
     92,          30.,   3.18181825
     93,    3.7935009,  -1.62444377
     94,   5.43934202,  -1.72802889
     95,    7.4814992,  -1.74547994
     96,   9.36076069,   -1.7314806
     97,   11.2421503,  -1.74664581
     98,   13.1393414,  -1.80577648
     99,   14.9969358,  -1.78818846
    100,   17.0714664,  -1.70217466
    101,   18.7176838,  -1.63125253
    102,   20.5312805,  -1.74578679
    103,   22.5126553,  -1.74716055
    104,   24.4390125,  -1.77682781
    105,   26.2883205,  -1.77694666
    106,   28.0772247,  -1.71812105
    107,   27.9428921, -0.00449042628
    108,   26.4171448, -0.0379985087
    109,   24.4228477, -0.0711182058
    110,   22.3548222, -0.0729963258
    111,   20.6140003, -0.0527832806
    112,   18.8719234, -0.209765762
    113,   16.8323212,  0.101121724
    114,   14.8750868, -0.0209146682
    115,   13.3143311, -0.0411438644
    116,   11.2568665, 0.00463132933
    117,   9.36099243, 0.0170449968
    118,   7.46701193, -0.0146735776
    119,   5.45364475, -0.00961110089
    120, -0.00879030209,  -3.60741925
    121,   2.15026736,  -3.33015823
    122,  -28.3631268,  -3.27807927
    123,  -26.3676128,  -3.39464259
    124,  -24.5017967,  -3.39987278
    125,    -22.62537,  -3.45242095
    126,  -20.6991463,  -3.50971293
    127,  -18.5490608,  -3.33724213
    128,  -16.7546082,  -3.46386623
    129,   -14.905654,   -3.4185214
    130,  -13.0689611,  -3.41630077
    131,  -11.2274523,  -3.41161466
    132,  -9.38399315,  -3.40498495
    133,  -7.54509783,  -3.40608406
    134,   -5.6762991,  -3.42046762
    135,  -3.79206634,  -3.51669621
    136,  -2.17862511,  -3.34325385
    137,    3.8478961,  -3.38141632
    138,   5.70554161,  -3.44060969
    139,   7.54229736,  -3.41009855
    140,   9.37730503,  -3.40262079
    141,   11.2247648,  -3.40415478
    142,   13.0656013,  -3.41997671
    143,   14.9034519,  -3.42617965
    144,   16.7657642,  -3.45472598
    145,   18.6847095,  -3.50880504
    146,   20.8195724,  -3.33822989
    147,   22.6327744,  -3.46453023
    148,   24.5030403,  -3.42440605
    149,   26.3551044,  -3.41246176
    150,   28.3511429,  -3.28263903
    151,  -3.89562941,  -1.60738528
    152,  -5.46939468,  -1.68118727
    153,  -7.50084972,  -1.72372055
    154,  -9.39004898,  -1.74967051
    155,  -11.2644873,  -1.78882754
    156,  -13.1290455,  -1.78650522
    157,   -14.987339,  -1.74213433
    158,  -16.8836975,   -1.7110399
    159,  -18.7144718,  -1.69889593
    160,  -20.5860329,  -1.61075425
    161,  -22.3104038,  -1.70573747
    162,  -24.4241333,  -1.68533134
    163,  -26.3104687,  -1.72342873
    164,  -28.0956249,  -1.71558428
    165,  -5.52834082, -0.013372303
    166,  -7.48732233,  0.016181998
    167,    -9.403018, -0.0193618927
    168,  -11.4394207, -0.0264557786
    169,  -13.1455307, 0.0199571587
    170,  -14.8512211,  0.056598831
    171,  -16.8487988, 0.0668822452
    172,  -19.0094032,  0.041088704
    173,   -20.665081, 0.0699549243
    174,  -22.3573551,  0.074381873
    175,  -24.4228458, 0.0711152479
    176,  -26.4171448, 0.0379977934
    177,  -27.9428921, 0.00449038763
    178,  -3.83545327,   1.70574844
    179,  -5.47025108,   1.66144657
    180,  -7.49042797,   1.74949694
    181,  -9.38609314,   1.72551298
    182,  -11.2734747,   1.75180686
    183,   -13.125947,   1.81265354
    184,  -14.9894981,   1.81055081
    185,  -17.0288219,   1.73621917
    186,  -18.6980324,   1.58543611
    187,  -20.5347767,   1.73948288
    188,  -22.5126743,   1.74703979
    189,  -24.4390125,   1.77682233
    190,  -26.2883224,   1.77694559
    191,  -28.0772247,   1.71812105
    192,   28.3631268,   3.27807927
    193,   26.3676128,   3.39464259
    194,   24.5017967,   3.39987254
    195,   22.6253796,   3.45242429
    196,   20.7012901,   3.51083827
    197,   18.5625134,    3.3312037
    198,   16.7562027,   3.45957112
    199,   14.9057579,   3.41968822
    200,    13.069726,   3.41507411
    201,   11.2271233,   3.41013432
    202,   9.38187027,   3.40300274
    203,   7.54152775,   3.40252709
    204,   5.67066002,   3.42109847
    205,   3.77867389,   3.52570939
    206,   2.16511703,    3.3502388
    207,  0.127187327,   3.49704671
    208,  -1.97308099,   3.50514793
    209,  -3.81296182,   3.37966681
    210,  -5.69339943,   3.41580749
    211,  -7.54220867,   3.41198325
    212,  -9.38092136,   3.39966297
    213,  -11.2311516,   3.40468979
    214,  -13.0659466,   3.42052102
    215,  -14.9033575,   3.42728758
    216,  -16.7640419,   3.45625257
    217,  -18.6839046,   3.50745869
    218,  -20.8195896,     3.337327
    219,  -22.6327744,   3.46452665
    220,  -24.5030422,   3.42440152
    221,  -26.3551064,   3.41246128
    222,  -28.3511429,   3.28263903
    223,   3.86592507,   1.62740982
    224,    5.4426403,   1.68041289
    225,   7.48565626,   1.71963835
    226,   9.37467957,   1.74776196
    227,   11.2492867,   1.75585079
    228,   13.1472855,   1.75649142
    229,    14.990716,   1.76201046
    230,   16.8527279,   1.71660972
    231,   18.8327465,   1.71439993
    232,   20.5874462,   1.63441598
    233,    22.310545,   1.70578814
    234,   24.4241333,   1.68532991
    235,   26.3104687,   1.72342837
    236,   28.0956249,   1.71558428
    237,   2.40224218,   1.59915853
    238,  0.799650848,   1.95962739
    239, -0.996013165,   1.93700528
    240,   -3.1831255,  -1.21116805
    241, -0.845740974,  -1.95478404
    242,  0.799650848,  -1.95962739
    243,   2.40224218,  -1.59915853
    244,   29.1044769,           5.
    245,   27.3134327,           5.
    246,   25.5223885,           5.
    247,   23.7313442,           5.
    248,   21.9402981,           5.
    249,   20.1492538,           5.
    250,   19.2537308,           5.
    251,   17.4626865,           5.
    252,   15.6716413,           5.
    253,   13.8805971,           5.
    254,   12.0895519,           5.
    255,   10.2985077,           5.
    256,    8.5074625,           5.
    257,   6.71641779,           5.
    258,   4.92537308,           5.
    259,   3.13432837,           5.
    260,   1.34328353,           5.
    261, -0.447761208,           5.
    262,  -1.34328353,           5.
    263,  -3.13432837,           5.
    264,  -4.92537308,           5.
    265,  -6.71641779,           5.
    266,   -8.5074625,           5.
    267,  -10.2985077,           5.
    268,  -12.0895519,           5.
    269,  -13.8805971,           5.
    270,  -15.6716413,           5.
    271,  -17.4626865,           5.
    272,  -19.2537308,           5.
    273,  -20.1492538,           5.
    274,  -21.9402981,           5.
    275,  -23.7313442,           5.
    276,  -25.5223885,           5.
    277,  -27.3134327,           5.
    278,  -29.1044769,           5.
    279,         -30.,     4.090909
    280,         -30.,   2.27272725
    281,         -30.,  0.454545468
    282,         -30.,  -2.27272725
    283,         -30.,    -4.090909
    284,  -29.1044769,          -5.
    285,  -27.3134327,          -5.
    286,  -25.5223885,          -5.
    287,  -23.7313442,          -5.
    288,  -21.9402981,          -5.
    289,  -20.1492538,          -5.
    290,  -19.2537308,          -5.
    291,  -17.4626865,          -5.
    292,  -15.6716413,          -5.
    293,  -13.8805971,          -5.
    294,  -12.0895519,          -5.
    295,  -10.2985077,          -5.
    296,   -8.5074625,          -5.
    297,  -6.71641779,          -5.
    298,  -4.92537308,          -5.
    299,  -3.13432837,          -5.
    300,  -1.34328353,          -5.
    301,  0.447761208,          -5.
    302,   1.34328353,          -5.
    303,   3.13432837,          -5.
    304,   4.92537308,          -5.
    305,   6.71641779,          -5.
    306,    8.5074625,          -5.
    307,   10.2985077,          -5.
    308,   12.0895519,          -5.
    309,   13.8805971,          -5.
    310,   15.6716413,          -5.
    311,   17.4626865,          -5.
    312,   19.2537308,          -5.
    313,   20.1492538,          -5.
    314,   21.9402981,          -5.
    315,   23.7313442,          -5.
    316,   25.5223885,          -5.
    317,   27.3134327,          -5.
    318,   29.1044769,          -5.
    319,          30.,    -4.090909
    320,          30.,  -2.27272725
    321,          30., -0.454545468
    322,          30.,   2.27272725
    323,          30.,     4.090909
    324,  -4.66682577, -0.390916467
    325,   4.59412432, -0.397109032
    326,   4.59948397,  0.387433857
    327,   3.06049037,  -2.02664113
    328,   3.12731433,   2.06503248
    329,   2.26955104,  -2.37431931
    330,   2.29319453,   2.39691925
    331,   1.39280069,  -2.60783458
    332,   1.40932274,   2.60897374
    333,  0.457283407,  -2.72162271
    334,  0.490756184,   2.70384216
    335,  -3.15869164,  -2.04547715
    336,  -2.32340765,  -2.38239503
    337,  -1.43030274,  -2.60887837
    338, -0.489919335,   -2.7229197
    339,  -4.52637196,   1.03953528
    340,   20.5917568,    4.3727932
    341,  -20.5910931,  -4.37260199
    342,   28.7904205,    4.1753974
    343,   26.8579025,   4.19686079
    344,   25.0209427,   4.20692444
    345,   23.1875324,   4.22413826
    346,   19.6746235,   4.07420111
    347,   17.0871124,   4.25479507
    348,  -28.7904205,   -4.1753974
    349,  -26.8579025,  -4.19686079
    350,  -25.0209427,  -4.20692444
    351,  -23.1875305,  -4.22413778
    352,  -19.6704769,  -4.07394075
    353,  -17.0864544,  -4.25564909
    354,   16.2025547,   4.22748375
    355,   -16.202179,  -4.22834206
    356,   15.2957211,   4.21621513
    357,  -15.2956409,  -4.21616364
    358,   27.8077202,   4.17216253
    359,   25.9379845,   4.20051432
    360,   2.62447596,   -4.2296648
    361,  -1.70650709,  -4.21517229
    362, -0.0040374347,  -4.42837286
    363,  0.756125212,  -4.28144646
    364,  -3.49887776,  -4.27398682
    365,  -2.56691337,   4.23727655
    366,  -4.38528967,   4.20346928
    367, -0.163035542,   4.29619169
    368, -0.914007366,   4.44290543
    369,    24.103157,   4.20926285
    370,   22.2802219,   4.24339294
    371,   17.9670773,   4.25064754
    372,   14.3861685,   4.21299887
    373,   12.5748663,   4.20941925
    374,   10.7563562,   4.20680618
    375,   8.93624973,   4.20480061
    376,   7.12251472,   4.20851564
    377,   5.28719425,   4.22238064
    378,   3.49084878,   4.27852583
    379,    1.7033875,   4.20719147
    380,  -6.21402264,    4.2115016
    381,  -7.12363911,   -4.2093482
    382,  -5.29037714,     -4.22086
    383,  -8.02897739,   4.20727873
    384,  -8.93688107,  -4.20550585
    385,  -9.84567261,   4.20375299
    386,  -10.7564268,  -4.20707417
    387,  -11.6680174,   4.20655441
    388,  -12.5747395,  -4.20962381
    389,  -13.4783316,    4.2132268
    390,   -14.386137,  -4.21279573
    391,  -15.2973499,   4.21743441
    392,  -17.1161728,   4.24328852
    393,  -17.9642296,  -4.25196362
    394,  -18.8045692,    4.3719182
    395,  -21.4275455,   4.25314856
    396,  -22.2802029,  -4.24338627
    397,  -23.1933918,   4.22949171
    398,   -24.103157,  -4.20926285
    399,  -25.0196915,   4.21673584
    400,  -25.9379845,  -4.20051432
    401,  -26.8527737,   4.20221043
    402,  -27.8077202,  -4.17216253
    403,  -28.7870541,     4.177495
    404,    4.4058404,  -4.21783495
    405,   6.21900606,  -4.21765327
    406,   8.02902222,  -4.20715189
    407,   9.84426022,  -4.20444679
    408,   11.6664886,  -4.20619154
    409,   13.4782591,  -4.21312714
    410,   15.2973642,  -4.21724749
    411,   17.1164608,   -4.2430315
    412,   18.8047314,  -4.37218666
    413,   21.4275417,  -4.25329971
    414,   23.1933899,  -4.22949409
    415,   25.0196915,  -4.21673727
    416,   26.8527737,  -4.20221043
    417,   28.7870541,    -4.177495
    418,   21.3781357,   4.27230167
    419,   18.7632313,   4.33121061
    420,   13.4796047,   4.21045589
    421,    11.666276,   4.20707798
    422,   9.84631443,   4.20454407
    423,   8.02915192,   4.20405102
    424,   6.20673704,   4.21203852
    425,    4.3711462,   4.24562788
    426,   2.62398195,   4.24905109
    427,   0.75987488,   4.23732805
    428,  -1.66261673,   4.30218315
    429,  -3.47042012,   4.20641327
    430,  -5.29967928,   4.20771408
    431,  -7.12353611,   4.20884705
    432,  -8.93666267,    4.2034936
    433,   -10.756794,    4.2036438
    434,   -12.574049,   4.20916319
    435,  -14.3856115,   4.21430922
    436,  -16.2091827,   4.22460556
    437,  -18.0170422,   4.27083492
    438,  -19.7171688,   4.07397938
    439,  -20.6316662,   4.33289099
    440,  -22.3083096,   4.25614786
    441,  -24.1048412,   4.21711063
    442,  -25.9337215,   4.21069193
    443,  -27.8021526,   4.17556953
    444,   -21.377655,  -4.27207804
    445,  -18.7591419,   -4.3326292
    446,  -13.4794502,  -4.21066046
    447,  -11.6663208,  -4.20740366
    448,  -9.84679604,  -4.20505047
    449,  -8.03026009,  -4.20519829
    450,  -6.20875406,  -4.21203089
    451,   -4.3765769,  -4.24226046
    452,  -2.63146925,  -4.24695063
    453, -0.766635656,  -4.28263521
    454,   1.69685793,  -4.21467304
    455,   3.51104903,   -4.2389369
    456,   5.31424999,  -4.22328043
    457,   7.12472248,  -4.21000147
    458,   8.93581581,  -4.20416927
    459,   10.7545948,  -4.20377159
    460,   12.5733871,  -4.20877552
    461,   14.3856173,  -4.21407652
    462,   16.2095203,  -4.22427607
    463,    18.017252,  -4.27105999
    464,   19.7173691,  -4.07477283
    465,   20.6317024,  -4.33326054
    466,   22.3083076,  -4.25617409
    467,   24.1048393,  -4.21711349
    468,   25.9337215,  -4.21069288
    469,   27.8021526,  -4.17556953
    470,   29.2696896,   3.49312544
    471,  -29.2696896,  -3.49312544
    472,   29.1912251,  -2.73666096
    473,   29.3307343,    -0.893381
    474,  -29.3307343,     0.893381
    475,  -29.1912251,   2.73666096
    476,   29.3349438,  0.893048882
    477,   29.0889187,   1.75517213
    478,  -29.3349438, -0.893048882
    479,  -29.0889187,  -1.75517213
    480,  -29.2658844,   3.49390435
    481,  -29.0810966,    1.7555021
    482,  -29.0895596, 0.000565429742
    483,  -29.2007103,  -2.73252892
    484,   29.2658844,  -3.49390435
    485,   29.0810966,   -1.7555021
    486,   29.0895596, -0.00056543661
    487,   29.2007103,   2.73252892
    488,  -3.12337112,   2.42751098
    489,   4.58099794,    1.1963073
    490,   4.55213642,  -1.23067617
    491,  -1.43637347,   2.71788716
    492, -0.462763876,   2.74725318
    493,  -4.61801672,  -1.18623626
    494,   5.21996737,  0.819672227
    495,   5.21306133, -0.848209858
    496,  -5.26918077, -0.824163139
    497,   1.07409072,  -3.46052575
    498,  -4.05418921,  -2.58544803
    499,  -4.80190849,  0.294707745
    500, -0.926384389,   3.64408803
    501,   4.03468513,   2.59746003
    502,   3.77477455,  -2.46789336
    503,   4.60444164,   1.94607365
    504,    4.5242157,  -2.09484792
    505,   3.02114701,  -2.86418891
    506,  -4.62945271,  -1.93708038
    507,  -3.08977532,  -2.92042708
    508,  -4.64093876,   1.92249894
    509,   27.3149109,   3.36036539
    510,   23.5612698,   3.40880799
    511,  -27.3149109,  -3.36036539
    512,  -23.5612679,  -3.40880752
    513,   17.5678234,   3.58859396
    514,  -17.5621853,  -3.59583879
    515,   25.4386024,   3.38809347
    516,  -25.4386024,  -3.38809371
    517,  -1.09679663,  -3.46337986
    518,  -21.8186817,   3.59488368
    519,   21.8186779,  -3.59510064
    520,    21.714407,   3.50793505
    521,   -21.713953,  -3.50770426
    522,   1.10927427,   3.43410349
    523,  -17.6731243,   3.50699449
    524,   17.6745815,  -3.50616026
    525,  -2.87236333,   3.41898775
    526,   3.03096724,  -3.60887313
    527,   3.02298808,   3.66669774
    528,  -3.03816271,  -3.66026306
    529,   3.07032871,   2.93367624
    530,  -23.5721226,   3.42673278
    531,   23.5721226,  -3.42673755
    532,   15.8288183,   3.42451453
    533,  -15.8286819,  -3.42484975
    534,  -15.8350477,   3.42963219
    535,   15.8363609,  -3.42773485
    536,  -4.76065779,   3.40207028
    537,   4.80984449,  -3.46353126
    538,   4.70671988,   3.44017577
    539,  -4.71658993,  -3.43514633
    540,  -4.22102928,   2.57578087
    541,  -25.4311485,   3.41738868
    542,   25.4311485,  -3.41739082
    543,   13.9885225,   3.41259456
    544,  -13.9879103,  -3.41258597
    545,  -13.9825077,   3.42317057
    546,   13.9827881,  -3.42227817
    547,  -6.61938572,   3.41080618
    548,   6.61962795,  -3.41398191
    549,   6.60792255,   3.40149856
    550,  -6.61278963,  -3.40418291
    551,  -27.2995625,   3.36794424
    552,   27.2995625,  -3.36794448
    553,  -2.27150702,   2.76302481
    554,  -21.9015446,   2.66646695
    555,   21.9014874,   -2.6669004
    556,  -22.0438576,  -2.70497417
    557,   22.0440311,   2.70504808
    558,   17.4751263,     2.645432
    559,  -17.4638557,  -2.67877746
    560,   17.3392124,  -2.70755482
    561,  -17.3279247,   2.71285248
    562,  -23.9915771,   2.60362053
    563,   23.9915791,  -2.60362577
    564,   -23.971983,  -2.55574679
    565,    23.971983,   2.55574608
    566,   15.4237556,   2.59779358
    567,  -15.4238424,  -2.58767009
    568,   15.4350004,  -2.60674214
    569,   -15.431529,   2.61927867
    570,  -5.14716482,   2.59655833
    571,   5.16399145,  -2.69234991
    572,   5.08821678,   2.61106753
    573,  -5.10425901,  -2.60756159
    574,  -25.8544064,   2.60056829
    575,   25.8544064,   -2.6005702
    576,  -25.8707829,  -2.55598211
    577,   25.8707829,   2.55598164
    578,   13.5733709,   2.59449983
    579,  -13.5682764,  -2.59930301
    580,   13.5655966,  -2.62070489
    581,  -13.5623331,   2.62360024
    582,  -7.04201889,    2.5875535
    583,   7.03683233,  -2.58720303
    584,  -7.04323912,  -2.57194901
    585,   7.03223038,   2.56584167
    586,  -27.6874504,   2.52234006
    587,   27.6874504,   -2.5223403
    588,  -27.7073956,  -2.51606774
    589,   27.7073956,   2.51606774
    590,   6.01809168, -0.874078631
    591,  -5.27821159,  0.770465076
    592,   12.1480598,   3.40988803
    593,  -12.1476383,  -3.41179061
    594,  -12.1488438,   3.41043115
    595,   12.1453953,  -3.40929461
    596,  -6.05783224, -0.846220195
    597,   8.46025753,  -3.40317464
    598,  -8.46021652,    3.4007442
    599,   8.46355057,   3.39567971
    600,  -8.46785355,  -3.39992571
    601,   6.01913738,  0.838657081
    602,   10.3046217,   3.40364218
    603,  -10.3058462,  -3.40542364
    604,  -10.3082743,    3.3956356
    605,   10.2996511,  -3.39700866
    606,   26.7945061,   2.55018163
    607,  -26.7945061,  -2.55018163
    608,   26.7757378,   -2.5728004
    609,  -26.7757378,   2.57279968
    610,   6.05836964,   2.56545448
    611,  -6.07291508,  -2.56826854
    612,    6.0802207,  -2.60149145
    613,  -6.08417368,   2.57095194
    614,  -14.4891119,   2.62294793
    615,   14.4927607,  -2.61574531
    616,  -14.4914322,  -2.58736563
    617,   14.4942799,    2.5922389
    618,   24.9319592,   2.54688358
    619,  -24.9319592,  -2.54688406
    620,    24.930645,  -2.60168099
    621,  -24.9306469,   2.60167742
    622,   -25.378809,   1.77302837
    623,    25.378809,  -1.77303135
    624,   14.0689249,   1.75949109
    625,  -14.0531845,  -1.76189041
    626,   14.0659075,   -1.8088094
    627,  -14.0503712,   1.81941962
    628,  -6.52568531,   1.72288358
    629,   6.50765324,  -1.73794758
    630,  -6.52697611,  -1.70701611
    631,   6.50524616,   1.70318484
    632,  -27.1907043,    1.7496593
    633,   27.1907043,  -1.74965966
    634,  -27.2106514,   -1.7267698
    635,   27.2106514,   1.72676969
    636,  -6.05608034,  0.842613757
    637,  -23.0174961,    2.6121459
    638,   23.0174847,  -2.61224174
    639,   21.2755566,   2.86614919
    640,  -21.2744274,  -2.86565137
    641,  -22.9903336,  -2.58587027
    642,    22.990387,   2.58589125
    643,   16.3775959,    2.6011281
    644,  -16.3811359,  -2.59849334
    645,   16.4033794,   -2.6080749
    646,  -16.3923092,   2.62414908
    647,   18.1020355,  -2.86559629
    648,  -18.0954094,   2.86299515
    649,   12.6401215,   2.59031582
    650,   -12.634614,  -2.60532498
    651,   12.6347132,  -2.60740876
    652,  -12.6354818,   2.60997558
    653,  -7.97797155,   2.57979465
    654,   7.97419167,  -2.58183551
    655,  -7.98867083,  -2.57087898
    656,   7.97938919,   2.56655812
    657,   11.7057209,   2.58744311
    658,  -11.7060652,  -2.60475087
    659,   11.7002974,   -2.5900209
    660,  -11.7119865,   2.59165621
    661,  -28.4776287,   2.40305257
    662,   28.4776287,  -2.40305281
    663,   8.90438843,  -2.57532597
    664,  -8.91415119,   2.57150221
    665,  -8.92164326,  -2.57606673
    666,   8.91377735,   2.57370234
    667,   9.84385204,   2.58394003
    668,  -9.84992981,  -2.58707976
    669,    9.8341608,  -2.57085657
    670,  -9.85192204,   2.56728125
    671,  -10.7854204,   2.57316446
    672,   10.7664137,  -2.57388473
    673,  -10.7795086,  -2.59632254
    674,   10.7742395,   2.58583808
    675,   6.49021053, -0.0170008857
    676,  -6.52504253, 0.00771604897
    677,   21.3585739,   2.10771513
    678,  -21.3576012,  -2.10348415
    679,  -17.9734459,   2.09885693
    680,   18.0010376,  -2.11126709
    681,   20.5526333,   2.50696015
    682,  -20.5431347,  -2.49463701
    683,    18.804966,  -2.50300121
    684,  -18.7960358,   2.49029756
    685,    10.308506,   1.75013971
    686,  -10.3320045,  -1.76341236
    687,  -23.4858265,   1.76621199
    688,   23.4858227,  -1.76625109
    689,   -23.425293,  -1.68979025
    690,   23.4253273,   1.68980122
    691,    15.967761,  -1.73710847
    692,  -15.9502954,   1.77600014
    693,  -7.00721264,   0.87118274
    694,   12.1980114,   1.74150336
    695,  -12.1948624,   -1.7921536
    696,   12.1921043,  -1.76505351
    697,  -12.1977205,    1.7815038
    698,  -8.44113636,    1.7296555
    699,   8.42537689,  -1.73089385
    700,  -8.44847488,  -1.72574401
    701,   8.43494034,   1.72529888
    702,   6.98508692, -0.879288971
    703,  -7.01124096, -0.851436257
    704,   13.6497822,  0.925297797
    705,  -13.5964193, -0.948354185
    706,   13.6460447, -0.994185746
    707,  -13.5939274,   1.00618351
    708,  -27.6015835,  0.942082763
    709,   27.6015835, -0.942082882
    710,  -27.6138954, -0.923646331
    711,   27.6138954,  0.923646271
    712,   -25.854681,  0.929116249
    713,    25.854681, -0.929118097
    714,   24.9079151,  -0.92727375
    715,  -24.9079151,  0.927270353
    716,   6.98720932,  0.848557472
    717,   15.9084301,   1.74472702
    718,  -15.9195776,   -1.7146064
    719,  -25.3952312, 0.0559140854
    720,   25.3952332, -0.055916097
    721,  -7.96495485,   0.87181294
    722,   19.7127323,   1.96154702
    723,  -19.6691189,  -1.90549171
    724,  -19.6262474,   1.92296827
    725,   19.6270809,  -1.94353831
    726,    19.702919,   2.97378612
    727,  -19.6842537,  -2.96200156
    728,   21.3887672,   1.23892474
    729,   -21.396059,  -1.22808576
    730,  -19.6660309,   2.96571302
    731,   19.6677647,  -2.97228479
    732,   17.9753551,   -1.2661953
    733,  -17.8864346,   1.20662248
    734,  -22.9876785,  0.926118493
    735,  -22.9214401, -0.809922636
    736,   22.9210682,  0.810169816
    737,   22.9872551, -0.925914943
    738,   7.94917202,  0.860188305
    739,   12.7139082,  0.874277294
    740,  -12.6797113, -0.971737683
    741,   12.7103071, -0.920721173
    742,  -12.6790161,  0.978506565
    743,   7.94406843,  -0.87255162
    744,  -7.96871185, -0.860391498
    745,  -14.4972372,   1.00362122
    746,   14.5259151, -0.979713082
    747,  -28.5205154,  0.885690451
    748,   28.5205154,  -0.88569051
    749,   26.7626724,  0.910786808
    750,  -26.7626724, -0.910787225
    751,  -28.5276394, -0.880399287
    752,   28.5276394,  0.880399287
    753,  -26.7521133,  0.960716963
    754,   26.7521133, -0.960717678
    755,  -16.3980026,  0.902969122
    756,   16.3447514,  0.895329714
    757,  -16.3891983, -0.819367945
    758,   16.4334679, -0.812430978
    759,   23.9467525, -0.923276424
    760,  -23.9468212,  0.923301518
    761,   9.83563137,  0.889047503
    762,  -9.87591934, -0.898315728
    763,   10.7801781,  0.885340691
    764,  -10.8422413, -0.917187452
    765,   15.4508018, -0.885893703
    766,   15.4281397,  0.888938546
    767,  -15.4298019, -0.844866633
    768,  -15.4318609,   0.93524766
    769,  -15.8914804, 0.0495772175
    770,   15.8940945, 0.0276917815
    771,   10.3046637, 0.00985065475
    772,  -10.3804388, -0.0234763622
    773,    27.179369,  0.292688787
    774,   -27.179369, -0.292689055
    775,   25.8629417,   0.83960855
    776,  -25.8629417, -0.839609623
    777,    23.426609, -0.0636842549
    778,  -23.4271755, 0.0639936253
    779,   19.9888878,    1.2238611
    780,  -19.9991856,  -1.13307488
    781,  -19.3019962,   1.00690889
    782,   19.2792149,  -1.07482362
    783,   20.6158943,  0.814476192
    784,  -20.6599827, -0.774409294
    785,  -22.1610718,  0.968569219
    786,  -22.0822601, -0.805600584
    787,   22.0780697,  0.809525311
    788,   22.1590576,   -0.9679057
    789,   11.7398329,  0.873414516
    790,  -11.7783136, -0.971971035
    791,   8.88952637,  -0.86328423
    792,  -17.2053814,  0.820946336
    793,   17.3746147, -0.660773158
    794,   17.1424732,  0.894004166
    795,  -17.3532009, -0.792597771
    796,   8.89591408,  0.873176157
    797,  -8.92172432, -0.875424206
    798,   14.5207043,  0.931333125
    799,  -14.4950733, -0.918548584
    800,   8.41778088, -1.66607388e-05
    801,  -8.44419765, -0.000626716821
    802,   24.9027538,  0.815868676
    803,  -24.9027519, -0.815870464
    804,   21.4179535,  0.367124349
    805,  -21.4373112, -0.354466319
    806,   9.83030415, -0.862985432
    807,   25.3838406,   1.69451678
    808,  -25.3838406,  -1.69451773
    809,  -17.8815727,  0.190007731
    810,   17.8475838,  0.269284368
    811,  -18.5554886,  0.806012809
    812,   18.5921707, -0.947618842
    813,  -21.4682999,   1.56315911
    814,   21.4642639,  -1.56448495
    815,   17.8889084,   1.48516607
    816,  -17.8383255,  -1.67662263
    817,  -23.9206066, -0.810967624
    818,   23.9204559,  0.811061203
    819,   -8.9198513,  0.860189199
    820,   -9.8779068,  0.856183529
    821,   10.7767859, -0.871137023
    822,   11.7364931, -0.886673808
    823,  -11.7793884,  0.943653762
    824,   14.0933943,  0.285246491
    825,  -14.0267296, -0.282751828
    826,    20.334322,  -2.47053075
    827,  -20.3345585,   2.46344662
    828,   19.0303421,   2.46135426
    829,  -18.9830227,  -2.45331287
    830,   10.3017626,  -1.72616506
    831,  -10.3361912,   1.72337818
    832,   28.4911556,   2.39948654
    833,  -28.4911556,  -2.39948654
    834,   4.42414427,   -2.8200078
    835,   21.4455643,  -0.53791213
    836,  -21.4613132,  0.542241871
    837,   12.2452898, -0.0160359461
    838,  -12.2585039,  0.316039503
    839,  -10.8478031,  0.870848358
    840,   18.3579273,   2.32751107
    841,  -18.3097477,  -2.36897016
    842,  -21.0117531,   2.35397649
    843,   21.0101852,  -2.35718656
    844,   19.3932781,   1.24142087
    845,  -19.2660313, -0.982953787
    846,  -20.0103207,   1.21537924
    847,   19.9918804,  -1.23982155
    848,  -18.3438339, -0.819995642
    849,   19.7247753,  0.478467882
    850,  -19.9255085,  0.479887933
    851,   19.8575134, -0.505858898
    852,   18.7598705,  0.829828918
    853,  -20.6775494,  0.935017705
    854,   20.6507492, -0.941107929
    855,   -19.920866, -0.383251071
    856,   18.1323299, -0.563013732
    857,  -12.2602959, -0.326833576
    858,  -27.1786213,  0.330519766
    859,   27.1786213, -0.330520153
    860,  -14.0229292,  0.360721797
    861,   14.0909548, -0.350142151
*Element, type=CPS3
   1, 326,  16, 325
   2, 601, 224, 494
   3, 738, 701, 225
   4, 761, 685, 226
   5, 789, 694, 227
   6, 704, 624, 228
   7, 766, 717, 229
   8, 794, 230, 756
   9, 849, 779, 844
  10, 804, 110, 787
  11, 736, 690, 233
  12, 802, 109, 720
  13, 749, 635, 235
  14, 752, 476, 477
  15, 477, 476,  91
  16, 487, 477, 322
  17, 832, 477, 487
  18, 470, 323, 342
  19, 358, 245, 343
  20, 343, 245,  18
  21, 359,  18, 246
  22, 344, 246,  19
  23, 618, 515, 194
  24, 807, 802, 775
  25, 360,  72, 303
  26, 333, 331, 242
  27, 497, 363, 454
  28, 338,  12, 241
  29, 517, 136, 361
  30, 453, 362, 120
  31, 517, 361, 453
  32, 362,  71, 301
  33, 363, 362, 301
  34, 329, 327, 243
  35, 505, 327, 329
  36, 336,  11,  10
  37, 507, 335, 498
  38, 452, 364, 299
  39, 528, 136, 507
  40, 507, 336, 335
  41, 493,   9, 324
  42, 324,   9,   8
  43, 499, 324,   8
  44, 591, 499, 339
  45, 178,   7,   6
  46, 540, 488, 209
  47, 365,  33, 263
  48, 429, 365, 263
  49, 366,  34, 264
  50, 430, 366, 264
  51, 540, 508, 178
  52, 508, 339, 178
  53, 553,   5, 491
  54, 492, 491, 239
  55, 368, 261, 262
  56, 368, 367, 261
  57, 500, 491, 492
  58, 334,   4, 238
  59, 330,   3, 237
  60, 328, 237,   2
  61, 489,   1, 326
  62, 326,   1,  16
  63,   2,   1, 223
  64, 342, 323, 244
  65, 369,  19, 247
  66, 345, 247,  20
  67, 642, 510, 195
  68, 818, 690, 736
  69, 370,  20, 248
  70, 418, 370, 248
  71, 677, 557, 639
  72, 728, 233, 677
  73, 340,  21, 249
  74, 346, 196, 340
  75, 726, 722, 681
  76, 779, 232, 722
  77, 371,  22, 251
  78, 513, 347, 198
  79, 558, 513, 198
  80, 815, 794, 810
  81, 354, 347,  23
  82, 356, 354, 252
  83, 566, 532, 199
  84, 756, 230, 717
  85, 372, 356,  24
  86, 420, 372, 253
  87, 578, 543, 200
  88, 798, 624, 704
  89, 373,  25, 254
  90, 421, 373, 254
  91, 694, 649, 657
  92, 739, 228, 694
  93, 374,  26, 255
  94, 602, 374, 422
  95, 667, 602, 202
  96, 763, 685, 761
  97, 375,  27, 256
  98, 599, 375, 423
  99, 701, 666, 656
 100, 796, 701, 738
 101, 376,  28, 257
 102, 549, 376, 424
 103, 610, 549, 204
 104, 716, 631, 601
 105, 377,  29, 258
 106, 538, 377, 425
 107, 572, 538, 501
 108, 572, 501, 503
 109, 378,  30, 259
 110, 527, 378, 426
 111, 529, 501, 205
 112, 379,  31, 260
 113, 522, 207, 334
 114, 522, 206, 379
 115, 380,  35, 265
 116, 431, 380, 265
 117, 582, 547, 211
 118, 693, 628, 180
 119, 703, 630, 596
 120, 584, 133, 550
 121, 450, 382, 134
 122, 550, 381, 450
 123, 382,  68, 298
 124, 539, 382, 451
 125, 573, 539, 498
 126, 573, 498, 506
 127, 611, 550, 134
 128, 383,  36, 266
 129, 432, 385, 212
 130, 698, 653, 664
 131, 819, 721, 698
 132, 797, 700, 744
 133, 665, 132, 600
 134, 449, 384, 296
 135, 600, 384, 449
 136, 385,  37, 267
 137, 604, 385, 433
 138, 671, 670, 604
 139, 839, 772, 820
 140, 764, 686, 762
 141, 673, 131, 603
 142, 448, 386, 295
 143, 603, 386, 448
 144, 387,  38, 268
 145, 594, 387, 434
 146, 697, 660, 652
 147, 742, 697, 183
 148, 740, 156, 695
 149, 658, 650, 593
 150, 388,  64, 294
 151, 447, 388, 294
 152, 389,  39, 269
 153, 545, 389, 435
 154, 614, 545, 215
 155, 745, 627, 184
 156, 799, 625, 705
 157, 616, 544, 579
 158, 390, 357,  63
 159, 446, 390, 293
 160, 391,  40, 270
 161, 534, 391, 436
 162, 646, 534, 216
 163, 755, 692, 185
 164, 757, 158, 718
 165, 644, 533, 567
 166, 355, 353,  62
 167, 357, 355, 292
 168, 392,  41, 271
 169, 523, 392, 437
 170, 679, 561, 648
 171, 809, 792, 733
 172, 848, 795, 809
 173, 559, 127, 514
 174, 393,  61, 291
 175, 514, 353, 128
 176, 394,  42, 272
 177, 438, 217, 394
 178, 730, 724, 684
 179, 850, 781, 846
 180, 780, 160, 723
 181, 829, 723, 727
 182, 352, 341, 289
 183, 352, 126, 341
 184, 395,  43, 274
 185, 440, 395, 274
 186, 554, 518, 219
 187, 853, 813, 836
 188, 729, 161, 678
 189, 556, 125, 521
 190, 444, 288,  60
 191, 444, 396, 288
 192, 397,  44, 275
 193, 441, 397, 275
 194, 562, 530, 220
 195, 760, 687, 189
 196, 817, 689, 735
 197, 564, 124, 512
 198, 398, 287, 351
 199, 351, 287,  59
 200, 399,  45, 276
 201, 442, 399, 276
 202, 574, 541, 221
 203, 712, 622, 190
 204, 808, 803, 776
 205, 576, 123, 516
 206, 400, 286, 350
 207, 350, 286,  58
 208, 401,  46, 277
 209, 443, 401, 277
 210, 586, 551, 222
 211, 708, 632, 191
 212, 710, 164, 634
 213, 588, 122, 511
 214, 402, 285, 349
 215, 349, 285,  57
 216, 403,  47, 278
 217, 480, 279,  50
 218, 661, 586, 222
 219, 747, 474, 482
 220, 479, 478,  53
 221, 833, 479, 483
 222, 348, 284,  56
 223, 471, 283, 348
 224, 455, 360, 303
 225, 404,  73, 304
 226, 405,  74, 305
 227, 406,  75, 306
 228, 597, 458, 140
 229, 605, 459, 141
 230, 595, 460, 142
 231, 546, 461, 143
 232, 535, 462, 144
 233, 524, 463, 145
 234, 413,  82, 314
 235, 414,  83, 315
 236, 415,  84, 316
 237, 416,  85, 317
 238, 417,  86, 318
 239, 484, 319,  88
 240, 485, 472, 320
 241, 662, 587, 150
 242, 473,  89, 321
 243, 709, 633, 106
 244, 754, 633, 709
 245, 713, 623, 105
 246, 714, 623, 713
 247, 563, 531, 148
 248, 467, 414, 315
 249, 748, 485, 473
 250, 590, 119, 495
 251, 743,  95, 699
 252, 830, 821, 806
 253, 822, 696, 741
 254, 706,  98, 626
 255, 765, 691, 758
 256, 732, 100, 680
 257, 782, 101, 725
 258, 835, 814, 788
 259, 737, 103, 688
 260, 759, 688, 104
 261, 327,  93,  14
 262, 490, 325,  15
 263,  15,  14,  93
 264, 612, 548, 583
 265, 457, 405, 305
 266, 583, 548, 139
 267, 663, 654, 597
 268, 699, 654, 663
 269, 458, 407, 140
 270, 669, 140, 605
 271, 672, 669, 605
 272, 696, 659, 651
 273, 615, 546, 143
 274, 645, 535, 144
 275, 647, 524, 145
 276, 826, 725, 731
 277, 555, 519, 147
 278, 638, 531, 563
 279, 659, 141, 595
 280, 580, 142, 546
 281, 568, 143, 535
 282, 560, 144, 524
 283, 731, 725, 683
 284, 843, 826, 146
 285, 620, 542, 575
 286, 575, 542, 149
 287, 587, 552, 150
 288, 608, 552, 587
 289, 835, 110, 804
 290, 851, 782, 847
 291, 856, 793, 732
 292, 758, 691, 100
 293, 746, 626,  99
 294, 741, 696,  98
 295, 821, 116, 771
 296, 791, 699,  96
 297, 702, 675, 590
 298, 325,  16,  15
 299, 326, 325, 119
 300, 834, 504, 502
 301, 456, 404, 304
 302, 605, 407, 459
 303, 595, 408, 460
 304, 546, 409, 461
 305, 535, 410, 462
 306, 524, 411, 463
 307, 464, 145, 412
 308, 466, 413, 314
 309, 468, 415, 316
 310, 469, 416, 317
 311, 700, 665, 655
 312, 668, 603, 132
 313, 695, 650, 658
 314, 579, 544, 130
 315, 567, 533, 129
 316, 559, 514, 128
 317, 727, 723, 682
 318, 678, 556, 640
 319, 641, 512, 125
 320, 619, 516, 124
 321, 607, 511, 123
 322, 483, 479, 282
 323, 676, 596, 165
 324, 744, 700, 153
 325, 762, 686, 154
 326, 790, 695, 155
 327, 705, 625, 156
 328, 767, 718, 157
 329, 809, 795, 171
 330, 855, 780, 845
 331, 805, 174, 786
 332, 735, 689, 161
 333, 803, 175, 719
 334, 750, 634, 163
 335, 751, 482, 478
 336, 591, 339, 179
 337, 636, 591, 179
 338, 819, 801, 721
 339, 820, 772, 167
 340, 823, 697, 742
 341, 707, 183, 627
 342, 768, 692, 755
 343, 733, 185, 679
 344, 781, 186, 724
 345, 836, 813, 785
 346, 734, 188, 687
 347, 715, 622, 712
 348, 753, 632, 708
 349, 474,  51, 281
 350, 589, 192, 509
 351, 606, 509, 193
 352, 711, 236, 635
 353, 577, 193, 515
 354, 565, 194, 510
 355, 557, 195, 520
 356, 726, 681, 196
 357, 558, 197, 513
 358, 643, 532, 566
 359, 617, 543, 578
 360, 657, 649, 592
 361, 674, 201, 602
 362, 666, 202, 599
 363, 585, 203, 549
 364, 488, 178,   6
 365, 570, 540, 536
 366, 613, 547, 582
 367, 664, 653, 598
 368, 670, 212, 604
 369, 660, 213, 594
 370, 581, 214, 545
 371, 569, 215, 534
 372, 561, 216, 523
 373, 730, 684, 217
 374, 554, 218, 518
 375, 637, 530, 562
 376, 621, 541, 574
 377, 609, 551, 586
 378, 481, 475, 280
 379, 335, 240, 151
 380, 834, 571, 504
 381, 328,   2, 223
 382, 332, 238,   3
 383, 492,   4, 334
 384, 240,   9, 151
 385, 337, 241,  11
 386, 338, 333,  12
 387, 331, 329,  13
 388, 358, 342,  17
 389, 359, 343,  18
 390, 369, 344,  19
 391, 370, 345,  20
 392, 418,  21, 340
 393, 419, 346, 250
 394, 419, 250,  22
 395, 347, 251,  23
 396, 356, 252,  24
 397, 420, 253,  25
 398, 421, 254,  26
 399, 422,  27, 375
 400, 423,  28, 376
 401, 424,  29, 377
 402, 425,  30, 378
 403, 426,  31, 379
 404, 427,  32, 367
 405, 500, 367, 368
 406, 428, 262,  33
 407, 429, 263,  34
 408, 430, 264,  35
 409, 431, 265,  36
 410, 432,  37, 385
 411, 433,  38, 387
 412, 434,  39, 389
 413, 435,  40, 391
 414, 436,  41, 392
 415, 437,  42, 394
 416, 439, 438, 273
 417, 439, 273,  43
 418, 440, 274,  44
 419, 441, 275,  45
 420, 442, 276,  46
 421, 443, 277,  47
 422, 278,  49, 279
 423, 480, 475, 222
 424, 481, 280,  51
 425, 482, 281,  52
 426, 483,  54, 471
 427, 283,  55, 284
 428, 402, 348,  56
 429, 400, 349,  57
 430, 398, 350,  58
 431, 396, 351,  59
 432, 444,  60, 341
 433, 445, 352, 290
 434, 445, 290,  61
 435, 353, 291,  62
 436, 357, 292,  63
 437, 446, 293,  64
 438, 447, 294,  65
 439, 448,  66, 384
 440, 449,  67, 381
 441, 450,  68, 382
 442, 451,  69, 364
 443, 452,  70, 361
 444, 453,  71, 362
 445, 363, 120, 362
 446, 454, 302,  72
 447, 455, 303,  73
 448, 456, 304,  74
 449, 457, 305,  75
 450, 458,  76, 407
 451, 459,  77, 408
 452, 460,  78, 409
 453, 461,  79, 410
 454, 462,  80, 411
 455, 463,  81, 412
 456, 465, 464, 313
 457, 465, 313,  82
 458, 466, 314,  83
 459, 467, 315,  84
 460, 468, 316,  85
 461, 469, 317,  86
 462, 318,  87, 319
 463, 484, 472, 150
 464, 485, 320,  89
 465, 486, 321,  90
 466, 487,  92, 470
 467, 323,  48, 244
 468, 496, 324, 165
 469, 496, 493, 324
 470, 490,  15,  93
 471, 495, 325, 490
 472, 494, 326, 119
 473, 494, 489, 326
 474, 505, 502, 327
 475, 327,  14, 243
 476, 501, 328, 223
 477, 529, 527, 206
 478, 329, 243,  13
 479, 505, 329, 121
 480, 332, 330, 206
 481, 330, 237, 328
 482, 331, 121, 329
 483, 331,  13, 242
 484, 332,   3, 330
 485, 522, 427, 207
 486, 333, 242,  12
 487, 497, 120, 363
 488, 492, 334, 207
 489, 334, 238, 332
 490, 335,  10, 240
 491, 498, 335, 151
 492, 337, 336, 136
 493, 336,  10, 335
 494, 337,  11, 336
 495, 517, 453, 120
 496, 338, 120, 333
 497, 338, 241, 337
 498, 339,   8,   7
 499, 339,   7, 178
 500, 346, 340, 249
 501, 520, 370, 418
 502, 521, 396, 444
 503, 341,  60, 289
 504, 342, 244,  17
 505, 470, 342, 192
 506, 509, 343, 193
 507, 509, 358, 343
 508, 515, 344, 194
 509, 515, 359, 344
 510, 510, 345, 195
 511, 510, 369, 345
 512, 346, 249, 250
 513, 726, 346, 197
 514, 354,  23, 252
 515, 513, 371, 347
 516, 471, 348, 122
 517, 348, 283, 284
 518, 511, 349, 123
 519, 511, 402, 349
 520, 516, 350, 124
 521, 516, 400, 350
 522, 512, 351, 125
 523, 512, 398, 351
 524, 352, 289, 290
 525, 727, 352, 127
 526, 355,  62, 292
 527, 514, 393, 353
 528, 532, 354, 356
 529, 354, 198, 347
 530, 533, 355, 357
 531, 355, 128, 353
 532, 372,  24, 253
 533, 532, 356, 199
 534, 390,  63, 293
 535, 533, 357, 129
 536, 358, 192, 342
 537, 358,  17, 245
 538, 359, 246, 344
 539, 359, 193, 343
 540, 526, 505, 121
 541, 454, 360, 121
 542, 528, 364, 452
 543, 361,  70, 300
 544, 363, 301, 302
 545, 517, 120, 338
 546, 454, 363, 302
 547, 497, 121, 331
 548, 539, 451, 135
 549, 364,  69, 299
 550, 525, 365, 429
 551, 428, 365, 208
 552, 536, 366, 430
 553, 429, 366, 209
 554, 522, 379, 427
 555, 367,  32, 261
 556, 428, 368, 262
 557, 500, 492, 207
 558, 369, 247, 345
 559, 369, 194, 344
 560, 418, 248,  21
 561, 370, 195, 345
 562, 419, 371, 197
 563, 371, 251, 347
 564, 543, 372, 420
 565, 372, 199, 356
 566, 592, 373, 421
 567, 420, 373, 200
 568, 422, 375, 202
 569, 421, 374, 201
 570, 423, 376, 203
 571, 602, 422, 202
 572, 424, 377, 204
 573, 599, 423, 203
 574, 425, 378, 205
 575, 549, 424, 204
 576, 426, 379, 206
 577, 538, 425, 205
 578, 427, 379, 260
 579, 527, 426, 206
 580, 547, 380, 431
 581, 430, 380, 210
 582, 600, 449, 133
 583, 381,  67, 297
 584, 451, 382, 298
 585, 550, 450, 134
 586, 598, 383, 432
 587, 431, 383, 211
 588, 603, 448, 132
 589, 384,  66, 296
 590, 433, 387, 213
 591, 598, 432, 212
 592, 447, 386, 131
 593, 386,  65, 295
 594, 434, 389, 214
 595, 604, 433, 213
 596, 593, 388, 447
 597, 446, 388, 130
 598, 435, 391, 215
 599, 594, 434, 214
 600, 544, 390, 446
 601, 390, 129, 357
 602, 436, 392, 216
 603, 545, 435, 215
 604, 437, 394, 217
 605, 534, 436, 216
 606, 445, 393, 127
 607, 393, 291, 353
 608, 438, 394, 272
 609, 523, 437, 217
 610, 518, 395, 440
 611, 439, 395, 218
 612, 396, 125, 351
 613, 396,  59, 288
 614, 530, 397, 441
 615, 440, 397, 219
 616, 398, 124, 350
 617, 398,  58, 287
 618, 541, 399, 442
 619, 441, 399, 220
 620, 400, 123, 349
 621, 400,  57, 286
 622, 551, 401, 443
 623, 442, 401, 221
 624, 402, 122, 348
 625, 402,  56, 285
 626, 443, 403, 222
 627, 403, 278, 279
 628, 537, 404, 456
 629, 455, 404, 137
 630, 548, 405, 457
 631, 456, 405, 138
 632, 597, 406, 458
 633, 457, 406, 139
 634, 407,  76, 307
 635, 459, 408, 141
 636, 408,  77, 308
 637, 460, 409, 142
 638, 409,  78, 309
 639, 461, 410, 143
 640, 410,  79, 310
 641, 462, 411, 144
 642, 411,  80, 311
 643, 463, 412, 145
 644, 412,  81, 312
 645, 464, 412, 312
 646, 519, 413, 466
 647, 465, 413, 146
 648, 531, 414, 467
 649, 466, 414, 147
 650, 542, 415, 468
 651, 467, 415, 148
 652, 552, 416, 469
 653, 468, 416, 149
 654, 469, 417, 150
 655, 417, 318, 319
 656, 418, 340, 196
 657, 520, 418, 196
 658, 419,  22, 371
 659, 419, 197, 346
 660, 420,  25, 373
 661, 543, 420, 200
 662, 421,  26, 374
 663, 592, 421, 201
 664, 422, 374, 255
 665, 422, 255,  27
 666, 423, 375, 256
 667, 423, 256,  28
 668, 424, 376, 257
 669, 424, 257,  29
 670, 425, 377, 258
 671, 425, 258,  30
 672, 426, 378, 259
 673, 426, 259,  31
 674, 427, 260,  32
 675, 427, 367, 207
 676, 428,  33, 365
 677, 500, 428, 208
 678, 429,  34, 366
 679, 525, 429, 209
 680, 430,  35, 380
 681, 536, 430, 210
 682, 431,  36, 383
 683, 547, 431, 211
 684, 432, 383, 266
 685, 432, 266,  37
 686, 433, 385, 267
 687, 433, 267,  38
 688, 434, 387, 268
 689, 434, 268,  39
 690, 435, 389, 269
 691, 435, 269,  40
 692, 436, 391, 270
 693, 436, 270,  41
 694, 437, 392, 271
 695, 437, 271,  42
 696, 438, 272, 273
 697, 730, 438, 218
 698, 439,  43, 395
 699, 439, 218, 438
 700, 440,  44, 397
 701, 518, 440, 219
 702, 441,  45, 399
 703, 530, 441, 220
 704, 442,  46, 401
 705, 541, 442, 221
 706, 443,  47, 403
 707, 551, 443, 222
 708, 444, 341, 126
 709, 521, 444, 126
 710, 445,  61, 393
 711, 445, 127, 352
 712, 446,  64, 388
 713, 544, 446, 130
 714, 447,  65, 386
 715, 593, 447, 131
 716, 448, 295,  66
 717, 448, 384, 132
 718, 449, 296,  67
 719, 449, 381, 133
 720, 450, 381, 297
 721, 450, 297,  68
 722, 451, 298,  69
 723, 451, 364, 135
 724, 452, 299,  70
 725, 452, 361, 136
 726, 453, 361, 300
 727, 453, 300,  71
 728, 454,  72, 360
 729, 497, 454, 121
 730, 455,  73, 404
 731, 526, 455, 137
 732, 456,  74, 405
 733, 537, 456, 138
 734, 457,  75, 406
 735, 548, 457, 139
 736, 458, 406, 306
 737, 458, 306,  76
 738, 459, 407, 307
 739, 459, 307,  77
 740, 460, 408, 308
 741, 460, 308,  78
 742, 461, 409, 309
 743, 461, 309,  79
 744, 462, 410, 310
 745, 462, 310,  80
 746, 463, 411, 311
 747, 463, 311,  81
 748, 464, 312, 313
 749, 731, 464, 146
 750, 465,  82, 413
 751, 465, 146, 464
 752, 466,  83, 414
 753, 519, 466, 147
 754, 467,  84, 415
 755, 531, 467, 148
 756, 468,  85, 416
 757, 542, 468, 149
 758, 469,  86, 417
 759, 552, 469, 150
 760, 832, 192, 589
 761, 470,  92, 323
 762, 833, 122, 588
 763, 471,  54, 283
 764, 484, 150, 417
 765, 472,  88, 320
 766, 486, 473, 321
 767, 748, 473, 486
 768, 747, 481, 474
 769, 482, 474, 281
 770, 480, 222, 403
 771, 475,  50, 280
 772, 752, 486, 476
 773, 476,  90,  91
 774, 752, 477, 236
 775, 477,  91, 322
 776, 478,  52,  53
 777, 751, 478, 479
 778, 751, 479, 164
 779, 479,  53, 282
 780, 480, 403, 279
 781, 480,  50, 475
 782, 481,  51, 474
 783, 661, 481, 191
 784, 482,  52, 478
 785, 747, 482, 177
 786, 483, 282,  54
 787, 483, 471, 122
 788, 484, 417, 319
 789, 484,  88, 472
 790, 485,  89, 473
 791, 662, 485, 106
 792, 486,  90, 476
 793, 748, 486, 107
 794, 487, 322,  92
 795, 487, 470, 192
 796, 488,   6,   5
 797, 553, 525, 488
 798, 503, 501, 223
 799, 489, 223,   1
 800, 504, 490,  93
 801, 495, 490,  94
 802, 553, 491, 208
 803, 491,   5, 239
 804, 492, 239,   4
 805, 500, 207, 367
 806, 506, 498, 151
 807, 493, 151,   9
 808, 601, 494, 119
 809, 494, 224, 489
 810, 590, 495,  94
 811, 495, 119, 325
 812, 596, 496, 165
 813, 496, 152, 493
 814, 497, 331, 333
 815, 497, 333, 120
 816, 507, 498, 135
 817, 506, 151, 493
 818, 499, 165, 324
 819, 499,   8, 339
 820, 500, 368, 428
 821, 500, 208, 491
 822, 529, 205, 527
 823, 503, 223, 489
 824, 834, 537, 571
 825, 502,  93, 327
 826, 503, 489, 224
 827, 572, 503, 224
 828, 504,  94, 490
 829, 504,  93, 502
 830, 526, 121, 360
 831, 505, 137, 502
 832, 506, 493, 152
 833, 573, 506, 152
 834, 528, 507, 135
 835, 507, 136, 336
 836, 570, 179, 508
 837, 508, 179, 339
 838, 606, 589, 509
 839, 509, 192, 358
 840, 642, 565, 510
 841, 510, 194, 369
 842, 607, 588, 511
 843, 511, 122, 402
 844, 641, 564, 512
 845, 512, 124, 398
 846, 643, 558, 198
 847, 513, 197, 371
 848, 644, 559, 128
 849, 514, 127, 393
 850, 618, 577, 515
 851, 515, 193, 359
 852, 619, 576, 516
 853, 516, 123, 400
 854, 517, 338, 337
 855, 517, 337, 136
 856, 637, 554, 219
 857, 518, 218, 395
 858, 638, 555, 147
 859, 519, 146, 413
 860, 639, 520, 196
 861, 520, 195, 370
 862, 640, 521, 126
 863, 521, 125, 396
 864, 522, 334, 332
 865, 522, 332, 206
 866, 648, 523, 217
 867, 523, 216, 392
 868, 647, 560, 524
 869, 524, 144, 411
 870, 525, 209, 488
 871, 525, 208, 365
 872, 526, 360, 455
 873, 526, 137, 505
 874, 529, 206, 330
 875, 527, 205, 378
 876, 528, 135, 364
 877, 528, 452, 136
 878, 529, 330, 328
 879, 529, 328, 501
 880, 621, 562, 220
 881, 530, 219, 397
 882, 620, 563, 148
 883, 531, 147, 414
 884, 617, 566, 199
 885, 532, 198, 354
 886, 616, 567, 129
 887, 533, 128, 355
 888, 646, 569, 534
 889, 534, 215, 391
 890, 645, 568, 535
 891, 535, 143, 410
 892, 570, 536, 210
 893, 536, 209, 366
 894, 571, 537, 138
 895, 537, 137, 404
 896, 538, 205, 501
 897, 538, 204, 377
 898, 539, 135, 498
 899, 539, 134, 382
 900, 540, 178, 488
 901, 540, 209, 536
 902, 609, 574, 221
 903, 541, 220, 399
 904, 608, 575, 149
 905, 542, 148, 415
 906, 649, 578, 200
 907, 543, 199, 372
 908, 650, 579, 130
 909, 544, 129, 390
 910, 614, 581, 545
 911, 545, 214, 389
 912, 615, 580, 546
 913, 546, 142, 409
 914, 653, 582, 211
 915, 547, 210, 380
 916, 654, 583, 139
 917, 548, 138, 405
 918, 610, 585, 549
 919, 549, 203, 376
 920, 611, 584, 550
 921, 550, 133, 381
 922, 661, 222, 475
 923, 551, 221, 401
 924, 662, 150, 472
 925, 552, 149, 416
 926, 553, 208, 525
 927, 553, 488,   5
 928, 813, 554, 188
 929, 842, 827, 218
 930, 814, 555, 103
 931, 555, 146, 519
 932, 640, 556, 521
 933, 641, 556, 161
 934, 639, 557, 520
 935, 642, 557, 233
 936, 815, 558, 230
 937, 840, 828, 197
 938, 816, 559, 158
 939, 841, 829, 127
 940, 680, 560, 647
 941, 645, 560, 100
 942, 648, 561, 523
 943, 646, 561, 185
 944, 687, 562, 189
 945, 687, 637, 562
 946, 688, 563, 104
 947, 688, 638, 563
 948, 689, 564, 641
 949, 619, 564, 162
 950, 690, 565, 642
 951, 618, 565, 234
 952, 717, 566, 229
 953, 717, 643, 566
 954, 718, 567, 157
 955, 718, 644, 567
 956, 691, 568, 645
 957, 615, 568,  99
 958, 692, 569, 646
 959, 614, 569, 184
 960, 613, 570, 210
 961, 570, 508, 540
 962, 612, 571, 138
 963, 571,  94, 504
 964, 610, 572, 224
 965, 572, 204, 538
 966, 611, 573, 152
 967, 573, 134, 539
 968, 622, 621, 574
 969, 622, 574, 190
 970, 623, 620, 575
 971, 623, 575, 105
 972, 808, 576, 619
 973, 607, 576, 163
 974, 807, 577, 618
 975, 606, 577, 235
 976, 624, 617, 578
 977, 624, 578, 228
 978, 625, 616, 579
 979, 625, 579, 156
 980, 626, 580, 615
 981, 651, 580,  98
 982, 627, 581, 614
 983, 652, 581, 183
 984, 628, 613, 582
 985, 628, 582, 180
 986, 629, 612, 583
 987, 629, 583,  95
 988, 630, 584, 611
 989, 655, 584, 153
 990, 631, 585, 610
 991, 656, 585, 225
 992, 632, 609, 586
 993, 632, 586, 191
 994, 633, 608, 587
 995, 633, 587, 106
 996, 634, 588, 607
 997, 833, 588, 164
 998, 635, 589, 606
 999, 832, 589, 236
1000, 629, 590,  94
1001, 702, 118, 675
1002, 636, 179, 628
1003, 591, 165, 499
1004, 674, 657, 201
1005, 592, 200, 373
1006, 673, 658, 131
1007, 593, 130, 388
1008, 652, 594, 214
1009, 594, 213, 387
1010, 651, 595, 142
1011, 595, 141, 408
1012, 703, 596, 676
1013, 596, 152, 496
1014, 669, 663, 140
1015, 597, 139, 406
1016, 670, 664, 212
1017, 598, 211, 383
1018, 656, 599, 203
1019, 599, 202, 375
1020, 655, 600, 133
1021, 600, 132, 384
1022, 675, 601, 119
1023, 716, 601, 675
1024, 667, 202, 666
1025, 602, 201, 374
1026, 668, 132, 665
1027, 603, 131, 386
1028, 671, 213, 660
1029, 604, 212, 385
1030, 672, 141, 659
1031, 605, 140, 407
1032, 606, 193, 577
1033, 635, 606, 235
1034, 607, 123, 576
1035, 634, 607, 163
1036, 608, 105, 575
1037, 608, 149, 552
1038, 609, 190, 574
1039, 609, 221, 551
1040, 610, 204, 572
1041, 631, 610, 224
1042, 611, 134, 573
1043, 630, 611, 152
1044, 612,  94, 571
1045, 612, 138, 548
1046, 613, 179, 570
1047, 613, 210, 547
1048, 614, 215, 569
1049, 627, 614, 184
1050, 615, 143, 568
1051, 626, 615,  99
1052, 616, 157, 567
1053, 616, 129, 544
1054, 617, 229, 566
1055, 617, 199, 543
1056, 618, 194, 565
1057, 807, 618, 234
1058, 619, 124, 564
1059, 808, 619, 162
1060, 620, 104, 563
1061, 620, 148, 542
1062, 621, 189, 562
1063, 621, 220, 541
1064, 753, 712, 190
1065, 622, 189, 621
1066, 754, 713, 105
1067, 623, 104, 620
1068, 739, 704, 228
1069, 624, 229, 617
1070, 740, 705, 156
1071, 625, 157, 616
1072, 746, 706, 626
1073, 626,  98, 580
1074, 745, 707, 627
1075, 627, 183, 581
1076, 693, 636, 628
1077, 628, 179, 613
1078, 702, 629,  95
1079, 629,  94, 612
1080, 630, 152, 596
1081, 630, 153, 584
1082, 631, 224, 601
1083, 631, 225, 585
1084, 747, 708, 191
1085, 632, 190, 609
1086, 748, 709, 106
1087, 633, 105, 608
1088, 750, 710, 634
1089, 634, 164, 588
1090, 749, 711, 635
1091, 635, 236, 589
1092, 693, 676, 636
1093, 636, 165, 591
1094, 637, 188, 554
1095, 637, 219, 530
1096, 638, 103, 555
1097, 638, 147, 531
1098, 681, 639, 196
1099, 681, 677, 639
1100, 682, 640, 126
1101, 682, 678, 640
1102, 641, 125, 556
1103, 689, 641, 161
1104, 642, 195, 557
1105, 690, 642, 233
1106, 643, 230, 558
1107, 643, 198, 532
1108, 644, 158, 559
1109, 644, 128, 533
1110, 645, 144, 560
1111, 691, 645, 100
1112, 646, 216, 561
1113, 692, 646, 185
1114, 683, 647, 145
1115, 683, 680, 647
1116, 684, 648, 217
1117, 684, 679, 648
1118, 649, 228, 578
1119, 649, 200, 592
1120, 650, 156, 579
1121, 650, 130, 593
1122, 651, 142, 580
1123, 696, 651,  98
1124, 652, 214, 581
1125, 697, 652, 183
1126, 653, 180, 582
1127, 653, 211, 598
1128, 654,  95, 583
1129, 654, 139, 597
1130, 655, 133, 584
1131, 700, 655, 153
1132, 656, 203, 585
1133, 701, 656, 225
1134, 657, 592, 201
1135, 694, 657, 227
1136, 658, 593, 131
1137, 695, 658, 155
1138, 672, 659,  97
1139, 659, 595, 651
1140, 671, 660, 182
1141, 660, 594, 652
1142, 661, 475, 481
1143, 661, 191, 586
1144, 662, 472, 485
1145, 662, 106, 587
1146, 663, 597, 140
1147, 699, 663,  96
1148, 664, 598, 212
1149, 698, 664, 181
1150, 668, 665, 154
1151, 665, 600, 655
1152, 667, 666, 226
1153, 666, 599, 656
1154, 685, 667, 226
1155, 685, 674, 667
1156, 686, 668, 154
1157, 686, 673, 668
1158, 830, 669, 672
1159, 669,  96, 663
1160, 831, 670, 671
1161, 670, 181, 664
1162, 671, 604, 213
1163, 831, 671, 182
1164, 672, 605, 141
1165, 830, 672,  97
1166, 673, 155, 658
1167, 673, 603, 668
1168, 674, 227, 657
1169, 674, 602, 667
1170, 716, 675, 118
1171, 675, 119, 590
1172, 676, 165, 636
1173, 703, 676, 166
1174, 728, 677, 232
1175, 677, 233, 557
1176, 729, 678, 160
1177, 678, 161, 556
1178, 733, 679, 186
1179, 679, 185, 561
1180, 732, 680, 101
1181, 680, 100, 560
1182, 828, 722, 726
1183, 681, 232, 677
1184, 682, 160, 678
1185, 727, 682, 126
1186, 683, 101, 680
1187, 731, 683, 145
1188, 827, 724, 730
1189, 684, 186, 679
1190, 796, 761, 226
1191, 685, 227, 674
1192, 797, 762, 154
1193, 686, 155, 673
1194, 760, 734, 687
1195, 687, 188, 637
1196, 759, 737, 688
1197, 688, 103, 638
1198, 786, 735, 161
1199, 689, 162, 564
1200, 787, 736, 233
1201, 690, 234, 565
1202, 793, 758, 100
1203, 691,  99, 568
1204, 792, 755, 185
1205, 692, 184, 569
1206, 721, 693, 180
1207, 693, 166, 676
1208, 789, 739, 694
1209, 694, 228, 649
1210, 790, 740, 695
1211, 695, 156, 650
1212, 741,  98, 706
1213, 696,  97, 659
1214, 742, 183, 707
1215, 697, 182, 660
1216, 819, 167, 801
1217, 698, 180, 653
1218, 791, 743, 699
1219, 699,  95, 654
1220, 744, 153, 703
1221, 700, 154, 665
1222, 738, 225, 716
1223, 701, 226, 666
1224, 702, 590, 629
1225, 743, 702,  95
1226, 744, 703, 166
1227, 703, 153, 630
1228, 824, 704, 115
1229, 824, 798, 704
1230, 825, 705, 169
1231, 825, 799, 705
1232, 861, 824, 115
1233, 741, 706, 115
1234, 860, 825, 169
1235, 742, 707, 169
1236, 858, 177, 774
1237, 858, 774, 176
1238, 859, 107, 773
1239, 859, 773, 108
1240, 774, 710, 750
1241, 751, 710, 177
1242, 773, 711, 749
1243, 752, 711, 107
1244, 719, 712, 176
1245, 719, 715, 712
1246, 720, 713, 108
1247, 720, 714, 713
1248, 759, 714, 109
1249, 714, 104, 623
1250, 760, 715, 175
1251, 715, 189, 622
1252, 738, 716, 118
1253, 716, 225, 631
1254, 766, 756, 717
1255, 717, 230, 643
1256, 767, 757, 718
1257, 718, 158, 644
1258, 776, 719, 176
1259, 719, 175, 715
1260, 775, 720, 108
1261, 720, 109, 714
1262, 721, 166, 693
1263, 721, 180, 698
1264, 844, 722, 231
1265, 722, 232, 681
1266, 845, 723, 159
1267, 723, 160, 682
1268, 846, 724, 187
1269, 724, 186, 684
1270, 847, 725, 102
1271, 725, 101, 683
1272, 726, 196, 346
1273, 828, 726, 197
1274, 727, 126, 352
1275, 829, 727, 127
1276, 783, 728, 232
1277, 804, 787, 728
1278, 784, 729, 160
1279, 805, 786, 729
1280, 730, 217, 438
1281, 827, 730, 218
1282, 731, 145, 464
1283, 826, 731, 146
1284, 812, 101, 782
1285, 856, 812, 112
1286, 811, 186, 781
1287, 811, 809, 733
1288, 778, 734, 760
1289, 785, 734, 174
1290, 778, 735, 174
1291, 817, 735, 778
1292, 777, 736, 110
1293, 818, 736, 777
1294, 777, 737, 759
1295, 788, 737, 110
1296, 800, 738, 118
1297, 800, 796, 738
1298, 837, 739, 789
1299, 739, 115, 704
1300, 857, 838, 169
1301, 740, 169, 705
1302, 837, 741, 115
1303, 837, 822, 741
1304, 838, 742, 169
1305, 838, 823, 742
1306, 800, 743, 791
1307, 743, 118, 702
1308, 801, 744, 166
1309, 801, 797, 744
1310, 768, 745, 184
1311, 860, 170, 825
1312, 765, 746,  99
1313, 861, 114, 824
1314, 747, 177, 708
1315, 747, 191, 481
1316, 748, 107, 709
1317, 748, 106, 485
1318, 775, 749, 235
1319, 773, 749, 108
1320, 776, 750, 163
1321, 774, 750, 176
1322, 751, 164, 710
1323, 751, 177, 482
1324, 752, 236, 711
1325, 752, 107, 486
1326, 753, 176, 712
1327, 753, 190, 632
1328, 754, 108, 713
1329, 754, 105, 633
1330, 769, 768, 755
1331, 769, 755, 171
1332, 770, 756, 766
1333, 794, 756, 113
1334, 769, 757, 767
1335, 795, 757, 171
1336, 770, 765, 758
1337, 770, 758, 113
1338, 759, 104, 714
1339, 777, 759, 109
1340, 760, 189, 715
1341, 778, 760, 175
1342, 771, 761, 117
1343, 771, 763, 761
1344, 772, 762, 167
1345, 772, 764, 762
1346, 789, 763, 116
1347, 763, 227, 685
1348, 790, 764, 168
1349, 764, 155, 686
1350, 765, 114, 746
1351, 765,  99, 691
1352, 798, 766, 229
1353, 770, 766, 114
1354, 799, 767, 157
1355, 769, 767, 170
1356, 768, 170, 745
1357, 768, 184, 692
1358, 769, 171, 757
1359, 769, 170, 768
1360, 770, 114, 765
1361, 770, 113, 756
1362, 806, 771, 117
1363, 771, 116, 763
1364, 820, 167, 819
1365, 772, 168, 764
1366, 859, 108, 754
1367, 773, 107, 711
1368, 858, 176, 753
1369, 774, 177, 710
1370, 775, 108, 749
1371, 807, 775, 235
1372, 776, 176, 750
1373, 808, 776, 163
1374, 818, 777, 109
1375, 777, 110, 737
1376, 817, 778, 175
1377, 778, 174, 734
1378, 844, 779, 722
1379, 849, 783, 779
1380, 845, 780, 723
1381, 855, 784, 780
1382, 846, 781, 724
1383, 811, 781, 172
1384, 847, 782, 725
1385, 812, 782, 112
1386, 804, 783, 111
1387, 783, 232, 779
1388, 805, 784, 173
1389, 784, 160, 780
1390, 785, 188, 734
1391, 836, 174, 805
1392, 786, 174, 735
1393, 786, 161, 729
1394, 787, 110, 736
1395, 787, 233, 728
1396, 854, 814, 835
1397, 788, 103, 737
1398, 789, 227, 763
1399, 837, 789, 116
1400, 790, 155, 764
1401, 857, 168, 838
1402, 806, 791,  96
1403, 800, 791, 117
1404, 792, 171, 755
1405, 792, 185, 733
1406, 793, 113, 758
1407, 793, 100, 732
1408, 810, 794, 113
1409, 852, 815, 810
1410, 848, 159, 816
1411, 795, 158, 757
1412, 796, 117, 761
1413, 796, 226, 701
1414, 797, 167, 762
1415, 797, 154, 700
1416, 798, 114, 766
1417, 798, 229, 624
1418, 799, 170, 767
1419, 799, 157, 625
1420, 800, 118, 743
1421, 800, 117, 796
1422, 801, 167, 797
1423, 801, 166, 721
1424, 818, 802, 234
1425, 802, 720, 775
1426, 817, 803, 162
1427, 803, 719, 776
1428, 804, 728, 783
1429, 835, 804, 111
1430, 805, 729, 784
1431, 836, 805, 173
1432, 806, 117, 791
1433, 830, 806,  96
1434, 807, 235, 577
1435, 807, 234, 802
1436, 808, 163, 576
1437, 808, 162, 803
1438, 848, 816, 795
1439, 809, 171, 792
1440, 810, 113, 793
1441, 852, 810, 112
1442, 811, 172, 809
1443, 811, 733, 186
1444, 856, 112, 810
1445, 812, 732, 101
1446, 842, 813, 187
1447, 813, 188, 785
1448, 843, 814, 102
1449, 814, 103, 788
1450, 840, 815, 231
1451, 815, 230, 794
1452, 841, 816, 159
1453, 816, 158, 795
1454, 817, 175, 803
1455, 817, 162, 689
1456, 818, 109, 802
1457, 818, 234, 690
1458, 819, 698, 181
1459, 820, 819, 181
1460, 831, 820, 181
1461, 839, 820, 831
1462, 822, 821,  97
1463, 821, 771, 806
1464, 822, 116, 821
1465, 822,  97, 696
1466, 839, 823, 168
1467, 823, 182, 697
1468, 861, 115, 706
1469, 824, 114, 798
1470, 860, 169, 707
1471, 825, 170, 799
1472, 843, 146, 555
1473, 826, 102, 725
1474, 842, 218, 554
1475, 827, 187, 724
1476, 840, 197, 558
1477, 828, 231, 722
1478, 841, 127, 559
1479, 829, 159, 723
1480, 830,  97, 821
1481, 830,  96, 669
1482, 839, 831, 182
1483, 831, 181, 670
1484, 832, 236, 477
1485, 832, 487, 192
1486, 833, 164, 479
1487, 833, 483, 122
1488, 834, 502, 137
1489, 834, 137, 537
1490, 835, 788, 110
1491, 854, 111, 851
1492, 836, 785, 174
1493, 853, 173, 850
1494, 837, 115, 739
1495, 837, 116, 822
1496, 857, 169, 740
1497, 838, 168, 823
1498, 839, 182, 823
1499, 839, 168, 772
1500, 840, 558, 815
1501, 840, 231, 828
1502, 841, 559, 816
1503, 841, 159, 829
1504, 842, 554, 813
1505, 842, 187, 827
1506, 843, 555, 814
1507, 843, 102, 826
1508, 852, 844, 231
1509, 852, 849, 844
1510, 848, 845, 159
1511, 855, 850, 173
1512, 853, 846, 187
1513, 853, 850, 846
1514, 854, 847, 102
1515, 851, 849, 112
1516, 848, 809, 172
1517, 848, 172, 845
1518, 851, 112, 782
1519, 849, 111, 783
1520, 855, 173, 784
1521, 850, 172, 781
1522, 854, 851, 847
1523, 851, 111, 849
1524, 852, 112, 849
1525, 852, 231, 815
1526, 853, 187, 813
1527, 853, 836, 173
1528, 854, 102, 814
1529, 854, 835, 111
1530, 855, 845, 172
1531, 855, 172, 850
1532, 856, 810, 793
1533, 856, 732, 812
1534, 857, 740, 790
1535, 857, 790, 168
1536, 858, 753, 708
1537, 858, 708, 177
1538, 859, 754, 709
1539, 859, 709, 107
1540, 860, 707, 745
1541, 860, 745, 170
1542, 861, 706, 746
1543, 861, 746, 114
*Nset, nset=_PickedSet2, internal, generate
   1,  861,    1
*Elset, elset=_PickedSet2, internal, generate
    1,  1543,     1
** Section: Section-1
*Solid Section, elset=_PickedSet2, material=Material-1
1.,
*End Part
**  
**
** ASSEMBLY
**
*Assembly, name=Assembly
**  
*Instance, name=plate-1, part=plate
*End Instance
**  
*Nset, nset=LeftEdgeSet, instance=plate-1
  49,  50,  51,  52,  53,  54,  55, 279, 280, 281, 282, 283
*Elset, elset=LeftEdgeSet, instance=plate-1
 217, 349, 422, 424, 425, 427, 763, 771, 776, 779, 786
*Elset, elset=_LoadSurface_S2, internal, instance=plate-1
 239, 242, 462, 464, 465, 761, 765, 773, 775, 794
*Elset, elset=_LoadSurface_S1, internal, instance=plate-1
 467,
*Surface, type=ELEMENT, name=LoadSurface
_LoadSurface_S2, S2
_LoadSurface_S1, S1
*End Assembly
** 
** MATERIALS
** 
*Material, name=Material-1
*Elastic
 2.9e+07, 0.3
** 
** BOUNDARY CONDITIONS
** 
** Name: BC-LeftEdge Type: Displacement/Rotation
*Boundary
LeftEdgeSet, 1, 1
LeftEdgeSet, 2, 2
** ----------------------------------------------------------------
** 
** STEP: Step-1
** 
*Step, name=Step-1, nlgeom=NO
*Static
1., 1., 1e-05, 1.
** 
** LOADS
** 
** Name: Load-1   Type: Pressure
*Dsload
LoadSurface, P, -1000.
** 
** OUTPUT REQUESTS
** 
*Restart, write, frequency=0
** 
** FIELD OUTPUT: F-Output-1
** 
*Output, field, variable=PRESELECT
** 
** HISTORY OUTPUT: H-Output-1
** 
*Output, history, variable=PRESELECT
*End Step
