*Heading
** Job name: plate_offset15__8499 Model name: PlateModel
** Generated by: Abaqus/CAE 2022
*Preprint, echo=NO, model=NO, history=NO, contact=NO
**
** PARTS
**
*Part, name=plate
*Node
      1,   18.6038761,   1.73553491
      2,   17.4939594,   3.12732601
      3,   15.8900833,   3.89971161
      4,   13.2644653,    3.6038754
      5,    11.872674,   2.49395919
      6,   11.1002884,   0.89008373
      7,   11.1002884,  -0.89008373
      8,    11.872674,  -2.49395919
      9,   13.2644653,   -3.6038754
     10,   15.8900833,  -3.89971161
     11,   17.4939594,  -3.12732601
     12,   18.6038761,  -1.73553491
     13,          19.,           0.
     14,   28.2089558,           5.
     15,   26.4179096,           5.
     16,   24.6268654,           5.
     17,   22.8358212,           5.
     18,   21.0447769,           5.
     19,   18.3582096,           5.
     20,   16.5671635,           5.
     21,   14.7761192,           5.
     22,    12.985075,           5.
     23,   11.1940298,           5.
     24,   9.40298462,           5.
     25,   7.61194038,           5.
     26,   5.82089567,           5.
     27,   4.02985096,           5.
     28,   2.23880601,           5.
     29,  0.447761208,           5.
     30,  -2.23880601,           5.
     31,  -4.02985096,           5.
     32,  -5.82089567,           5.
     33,  -7.61194038,           5.
     34,  -9.40298462,           5.
     35,  -11.1940298,           5.
     36,   -12.985075,           5.
     37,  -14.7761192,           5.
     38,  -16.5671635,           5.
     39,  -18.3582096,           5.
     40,  -21.0447769,           5.
     41,  -22.8358212,           5.
     42,  -24.6268654,           5.
     43,  -26.4179096,           5.
     44,  -28.2089558,           5.
     45,          30.,           5.
     46,         -30.,           5.
     47,         -30.,   3.18181825
     48,         -30.,   1.36363637
     49,         -30., -0.454545468
     50,         -30.,  -1.36363637
     51,         -30.,  -3.18181825
     52,         -30.,          -5.
     53,  -28.2089558,          -5.
     54,  -26.4179096,          -5.
     55,  -24.6268654,          -5.
     56,  -22.8358212,          -5.
     57,  -21.0447769,          -5.
     58,  -18.3582096,          -5.
     59,  -16.5671635,          -5.
     60,  -14.7761192,          -5.
     61,   -12.985075,          -5.
     62,  -11.1940298,          -5.
     63,  -9.40298462,          -5.
     64,  -7.61194038,          -5.
     65,  -5.82089567,          -5.
     66,  -4.02985096,          -5.
     67,  -2.23880601,          -5.
     68, -0.447761208,          -5.
     69,   2.23880601,          -5.
     70,   4.02985096,          -5.
     71,   5.82089567,          -5.
     72,   7.61194038,          -5.
     73,   9.40298462,          -5.
     74,   11.1940298,          -5.
     75,    12.985075,          -5.
     76,   14.7761192,          -5.
     77,   16.5671635,          -5.
     78,   18.3582096,          -5.
     79,   21.0447769,          -5.
     80,   22.8358212,          -5.
     81,   24.6268654,          -5.
     82,   26.4179096,          -5.
     83,   28.2089558,          -5.
     84,          30.,          -5.
     85,          30.,  -3.18181825
     86,          30.,  -1.36363637
     87,          30.,  0.454545468
     88,          30.,   1.36363637
     89,          30.,   3.18181825
     90,   20.4087772,  -1.42368364
     91,    22.480608,  -1.48213935
     92,   24.4193668,  -1.66184676
     93,   26.2766705,  -1.68480623
     94,   28.2746754,  -1.52144408
     95,   28.1669521, -0.0980600789
     96,    26.210907, -0.0463378578
     97,   24.4039135, 0.0476490892
     98,    22.504282,  0.524848461
     99,   20.7709961, -0.230067641
    100,   18.6788502,  -3.40470934
    101,   20.5590687,  -3.40975094
    102,    22.630537,  -3.30919552
    103,   24.5093098,  -3.36715531
    104,   26.3632908,  -3.36765289
    105,   28.3853416,  -3.25183272
    106,   11.2349663,  -3.35310173
    107,   9.40559864,   -3.3686235
    108,   7.58809614,  -3.40889359
    109,   5.74909687,  -3.42326403
    110,   3.89495206,  -3.42953944
    111,   1.84539473,  -3.51684117
    112, -0.00400127936,  -3.45552135
    113,  -1.85469043,  -3.53870201
    114,  -3.90034533,  -3.44320297
    115,  -5.74538517,  -3.42581296
    116,  -7.57073402,  -3.41538286
    117,  -9.39153385,   -3.4091413
    118,  -11.2124577,  -3.41088581
    119,   -13.040493,  -3.41850519
    120,  -14.8902826,  -3.41652775
    121,  -16.7484341,  -3.41734791
    122,  -18.7763252,  -3.53090882
    123,  -20.6143208,  -3.54535413
    124,   -22.638895,  -3.43699169
    125,  -24.5025406,  -3.41922379
    126,  -26.3565063,  -3.39201331
    127,  -28.3741932,  -3.26129222
    128,   9.26043987,  -1.81376433
    129,   7.70309639,  -1.71997237
    130,   5.70597839,  -1.74961698
    131,   3.82064033,  -1.73044288
    132,   1.89026392,  -1.71000004
    133, -0.00645771483,  -1.71631229
    134,   -1.9075104,  -1.74960828
    135,  -3.83238816,  -1.74808991
    136,  -5.69244051,   -1.7431972
    137,  -7.53779364,  -1.74134338
    138,   -9.3802824,  -1.75070453
    139,  -11.2258196,  -1.76498866
    140,   -13.083271,  -1.77157521
    141,  -14.9612865,  -1.75222301
    142,  -16.8433762,  -1.72613215
    143,  -18.7407894,  -1.72035968
    144,  -20.6255474,  -1.74627173
    145,  -22.5300446,  -1.75351644
    146,  -24.4340515,  -1.75166035
    147,  -26.2983742,  -1.76258552
    148,   -28.195446,  -1.60793769
    149,   9.41910458, -0.00232879235
    150,   7.70009565, -0.00893696584
    151,   5.69554138, 0.00967114512
    152,   3.81125975,    0.0409231
    153,   1.89527285, 0.0409618691
    154, 0.00123725459, 0.00477095228
    155,  -1.89363503, -0.0042360872
    156,  -3.81000018, 0.0245288536
    157,  -5.67743206, 0.0355703346
    158,  -7.52822256, 0.0259216838
    159,  -9.38166332, -0.00250588381
    160,  -11.2362394, -0.0259819254
    161,  -13.0993576, -0.0262030847
    162,  -14.9799976, -0.000795548782
    163,  -16.8614521, 0.0253565758
    164,  -18.7434196, 0.0274626873
    165,  -20.6132679, 0.00588984741
    166,  -22.5090332, 0.0013235847
    167,  -24.4312572, -0.0093349833
    168,  -26.4778309, -0.0202409532
    169,  -27.9978104, -0.00632348936
    170,   9.26766205,   1.81165719
    171,    7.7042737,   1.70910549
    172,   5.70665359,   1.76055658
    173,   3.83318281,   1.78530777
    174,   1.90778434,   1.76950788
    175, 0.00644227257,    1.7198112
    176,  -1.89020312,   1.73042095
    177,  -3.82008314,    1.7680397
    178,  -5.69206667,   1.78111029
    179,   -7.5394268,   1.77005613
    180,  -9.38797855,   1.74604988
    181,  -11.2343941,   1.73356974
    182,  -13.0852966,   1.74165559
    183,  -14.9613161,   1.75193131
    184,  -16.8430328,   1.76099896
    185,  -18.7374153,   1.75759387
    186,  -20.6214733,   1.74608529
    187,  -22.5289822,   1.74951136
    188,  -24.4368191,   1.73741019
    189,  -26.3042927,   1.73371828
    190,  -28.1997566,   1.60385621
    191,   11.4641142,   3.36580753
    192,   9.42488003,   3.36881232
    193,   7.58899355,   3.40856433
    194,   5.74940109,   3.42489314
    195,    3.9005239,   3.44556212
    196,   1.85322309,   3.54094529
    197, 0.000871473632,   3.45704055
    198,  -1.84681392,   3.51915765
    199,  -3.89491749,   3.43197036
    200,  -5.74526834,   3.42690587
    201,  -7.57085466,   3.41670561
    202,  -9.39292622,   3.40684342
    203,  -11.2141933,   3.40743041
    204,  -13.0400381,   3.41704226
    205,  -14.8890276,   3.41806149
    206,  -16.7476254,   3.43148994
    207,  -18.7702942,   3.54269147
    208,  -20.6087284,   3.53453064
    209,  -22.6350212,   3.42506433
    210,  -24.5027504,   3.41516995
    211,  -26.3584461,   3.38784075
    212,   -28.375185,   3.26270533
    213,    18.686451,    3.4050374
    214,   20.6011047,   3.42465091
    215,   22.6748886,    3.3645649
    216,   24.5149632,   3.40579271
    217,   26.3584595,   3.37854481
    218,   28.3760796,   3.25779343
    219,   20.6538124,    1.2252636
    220,   22.7144012,   1.61542404
    221,   24.4430103,   1.72327447
    222,   26.2935066,   1.67141593
    223,   28.2253094,   1.57041991
    224,   18.1273251,   2.49395919
    225,   16.7355347,    3.6038754
    226,          15.,           4.
    227,   14.1099167,   3.89971161
    228,   12.5060406,   3.12732601
    229,   11.3961248,   1.73553491
    230,          11.,           0.
    231,   11.3961248,  -1.73553491
    232,   12.5060406,  -3.12732601
    233,   14.1099167,  -3.89971161
    234,          15.,          -4.
    235,   16.7355347,   -3.6038754
    236,   18.1273251,  -2.49395919
    237,   29.1044769,           5.
    238,   27.3134327,           5.
    239,   25.5223885,           5.
    240,   23.7313442,           5.
    241,   21.9402981,           5.
    242,   20.1492538,           5.
    243,   19.2537308,           5.
    244,   17.4626865,           5.
    245,   15.6716413,           5.
    246,   13.8805971,           5.
    247,   12.0895519,           5.
    248,   10.2985077,           5.
    249,    8.5074625,           5.
    250,   6.71641779,           5.
    251,   4.92537308,           5.
    252,   3.13432837,           5.
    253,   1.34328353,           5.
    254, -0.447761208,           5.
    255,  -1.34328353,           5.
    256,  -3.13432837,           5.
    257,  -4.92537308,           5.
    258,  -6.71641779,           5.
    259,   -8.5074625,           5.
    260,  -10.2985077,           5.
    261,  -12.0895519,           5.
    262,  -13.8805971,           5.
    263,  -15.6716413,           5.
    264,  -17.4626865,           5.
    265,  -19.2537308,           5.
    266,  -20.1492538,           5.
    267,  -21.9402981,           5.
    268,  -23.7313442,           5.
    269,  -25.5223885,           5.
    270,  -27.3134327,           5.
    271,  -29.1044769,           5.
    272,         -30.,     4.090909
    273,         -30.,   2.27272725
    274,         -30.,  0.454545468
    275,         -30.,  -2.27272725
    276,         -30.,    -4.090909
    277,  -29.1044769,          -5.
    278,  -27.3134327,          -5.
    279,  -25.5223885,          -5.
    280,  -23.7313442,          -5.
    281,  -21.9402981,          -5.
    282,  -20.1492538,          -5.
    283,  -19.2537308,          -5.
    284,  -17.4626865,          -5.
    285,  -15.6716413,          -5.
    286,  -13.8805971,          -5.
    287,  -12.0895519,          -5.
    288,  -10.2985077,          -5.
    289,   -8.5074625,          -5.
    290,  -6.71641779,          -5.
    291,  -4.92537308,          -5.
    292,  -3.13432837,          -5.
    293,  -1.34328353,          -5.
    294,  0.447761208,          -5.
    295,   1.34328353,          -5.
    296,   3.13432837,          -5.
    297,   4.92537308,          -5.
    298,   6.71641779,          -5.
    299,    8.5074625,          -5.
    300,   10.2985077,          -5.
    301,   12.0895519,          -5.
    302,   13.8805971,          -5.
    303,   15.6716413,          -5.
    304,   17.4626865,          -5.
    305,   19.2537308,          -5.
    306,   20.1492538,          -5.
    307,   21.9402981,          -5.
    308,   23.7313442,          -5.
    309,   25.5223885,          -5.
    310,   27.3134327,          -5.
    311,   29.1044769,          -5.
    312,          30.,    -4.090909
    313,          30.,  -2.27272725
    314,          30., -0.454545468
    315,          30.,   2.27272725
    316,          30.,     4.090909
    317,   18.8997116,   0.89008373
    318,   18.8997116,  -0.89008373
    319,   20.5648804,   4.34829807
    320,  -20.5739975,  -4.39702749
    321,   28.7936363,    4.1686697
    322,   26.8550587,   4.18457937
    323,   25.0243359,   4.20952797
    324,   23.2050571,   4.19804859
    325,   19.6689548,   4.09586287
    326,   17.0199146,   4.13285208
    327,  -28.7934513,  -4.16937971
    328,  -26.8547707,  -4.18835115
    329,  -25.0192814,  -4.21292162
    330,  -23.1909237,  -4.22264814
    331,  -19.6980762,  -4.16318893
    332,  -17.1214085,  -4.22460794
    333,  -16.2055683,  -4.21306896
    334,  -15.2916536,  -4.21133614
    335,   17.0196571,  -4.13325739
    336,   0.90594548,  -4.13227892
    337,   18.7849064,  -4.33306408
    338,   27.8086967,   4.16000748
    339,   25.9356384,   4.19837904
    340,   3.50009751,   4.24029779
    341,   1.78489316,    4.3923068
    342,   5.33024406,   4.22001028
    343,   10.8230429,   4.18399811
    344,   8.96127987,   4.18917274
    345,   17.9683914,   4.16644621
    346,   24.1158924,   4.20399189
    347,   22.2864742,   4.19097281
    348,   7.14419842,   4.20960808
    349, 0.00028355734,   4.34411049
    350, -0.907746911,   4.13394833
    351,  -2.57228088,   4.26475143
    352,  -4.41780424,   4.22145081
    353,  -6.23487139,   4.21613026
    354,  -8.04311943,   4.21027565
    355,  -9.84901333,    4.2061801
    356,   -11.655591,   4.20877314
    357,  -13.4669371,   4.21325493
    358,  -15.2920103,   4.21406841
    359,  -17.1206226,    4.2347374
    360,  -18.8221493,   4.39591837
    361,  -21.3529015,   4.26746941
    362,  -23.1881981,   4.21723986
    363,  -25.0193329,   4.21194363
    364,  -26.8551483,   4.18764973
    365,  -28.7938118,    4.1698308
    366,  -27.8083019,  -4.16224003
    367,  -25.9339085,  -4.20285797
    368,  -24.1048717,  -4.21406889
    369,  -22.2748299,  -4.23664141
    370,   -18.041563,  -4.26466703
    371,  -14.3774462,  -4.21216345
    372,  -12.5602188,   -4.2116437
    373,  -10.7517977,  -4.20768166
    374,  -8.94633865,  -4.20827675
    375,  -7.13917637,  -4.21290779
    376,  -5.32943916,  -4.22011328
    377,  -3.50007224,  -4.23972368
    378,  -1.78540194,  -4.39145422
    379, -0.00208425173,  -4.34457636
    380,   2.57199121,   -4.2638669
    381,   4.41784954,  -4.22093678
    382,   6.23698425,  -4.21420813
    383,   8.04942036,  -4.20089626
    384,   9.86045551,  -4.17728901
    385,   11.6311951,  -4.17866707
    386,   21.3393803,  -4.20475245
    387,   23.1925163,  -4.16897726
    388,   25.0232697,  -4.19260406
    389,   26.8566456,  -4.18053579
    390,   28.7959061,  -4.16724586
    391,   12.5662451,    4.1432519
    392,   13.3562622,  -4.32093239
    393,   21.3571358,   4.22110939
    394,   18.7871475,   4.33346939
    395,   13.3612595,   4.32936764
    396,   11.6993141,   4.23431778
    397,   9.88435268,    4.1802001
    398,    8.0519495,   4.19976759
    399,   6.23794174,   4.21290493
    400,   4.41958714,   4.22461033
    401,    2.5748899,   4.27553606
    402,  0.909127593,    4.1416955
    403,   -1.7817862,   4.38357162
    404,  -3.49686027,   4.22864723
    405,  -5.32915211,   4.21699667
    406,  -7.13953972,   4.21177149
    407,  -8.94672108,   4.20657635
    408,   -10.752202,   4.20518064
    409,  -12.5600719,   4.20966053
    410,  -14.3770838,   4.21202898
    411,  -16.2043705,   4.21719313
    412,  -18.0396862,   4.27383232
    413,  -19.6949711,   4.16272974
    414,  -20.5701256,   4.39294577
    415,  -22.2712727,   4.22641897
    416,  -24.1041985,     4.211689
    417,  -25.9343872,   4.20165968
    418,  -27.8086395,   4.16232634
    419,  -21.3546982,  -4.27561188
    420,  -18.8255806,   -4.3917532
    421,  -13.4671326,  -4.21142673
    422,   -11.655159,  -4.20828581
    423,  -9.84859562,  -4.20621109
    424,  -8.04339218,  -4.20884228
    425,  -6.23520851,  -4.21433544
    426,  -4.41937447,  -4.22408295
    427,  -2.57522535,  -4.27483845
    428, -0.911003232,   -4.1406064
    429,   1.78108418,  -4.38259745
    430,   3.49679875,   -4.2278142
    431,   5.33016968,  -4.21594954
    432,   7.14488983,  -4.20777082
    433,     8.953475,  -4.18977642
    434,   10.7588272,  -4.17449951
    435,   12.5417051,  -4.09735346
    436,   17.9663773,   -4.1663928
    437,   19.6564083,  -4.09133768
    438,    20.549778,   -4.3411684
    439,   22.2672501,  -4.16569519
    440,   24.1100292,  -4.17868042
    441,   25.9371166,  -4.18864822
    442,   27.8117619,  -4.15723133
    443,   10.3145895,   1.54808652
    444,   19.5228214,   1.52884996
    445,   10.3032074,  -1.54874492
    446,   19.4596157,  -1.58370936
    447,   10.2482033, -0.480773032
    448,   10.2484598,  0.478866071
    449,   19.7603741,  0.469465345
    450,   19.1149597,   2.45017672
    451,   10.8865433,   2.49982524
    452,   19.7165794, -0.609679818
    453,  -29.2765331,  -3.49039268
    454,   29.2770176,   3.48942065
    455,    29.235117,  -2.74297786
    456,    29.154911, -0.981960118
    457,  -29.0793819,  0.996439755
    458,  -29.2233791,   2.75160694
    459,   29.1100845,  0.980093181
    460,   29.1802845,   1.88848412
    461,  -29.0774918, -0.998097897
    462,  -29.1691494,  -1.89858997
    463,  -29.2784748,   3.49137402
    464,  -29.1717491,   1.89852917
    465,  -28.9279728, -0.001941678
    466,  -29.2244682,  -2.75089931
    467,   29.2832737,  -3.48695683
    468,   29.2034168,  -1.87713838
    469,   29.0176449, -0.0206442419
    470,   29.2273865,    2.7477262
    471,   10.8324919,  -2.49751949
    472,   19.0866184,  -2.46077871
    473,   10.3932114,   3.35249829
    474,   10.3244181,  -3.34781194
    475,   27.3168793,   3.32965541
    476,   23.6009541,   3.38136816
    477,  -27.3130169,  -3.34071231
    478,   -23.576601,  -3.41897964
    479,  -17.7055931,  -3.43892455
    480,   25.4338436,   3.38951898
    481,  -25.4298458,  -3.40561461
    482,  -21.6752949,    3.4467299
    483,   -21.678957,   -3.4591682
    484,   -17.703146,   3.45397997
    485,  -2.92683625,   3.44377804
    486,   2.92641807,   -3.4409349
    487,  -2.93565202,  -3.46046638
    488,   2.93532944,   3.46317863
    489,  -23.5753002,   3.41311407
    490,    19.603569,   -3.1520834
    491,   19.6365261,    3.1507628
    492,  -15.8156462,  -3.40991092
    493,  -15.8150768,   3.41607571
    494,  -4.82545805,   3.42415571
    495,    4.8266592,  -3.42094755
    496,  -4.82754946,  -3.42671585
    497,   4.82887363,   3.42860723
    498,  -25.4311543,   3.39871621
    499,    25.435955,  -3.36922193
    500,  -13.9622459,  -3.41424561
    501,  -13.9617519,   3.41381788
    502,  -6.65816021,   3.41794634
    503,   6.67164135,  -3.40968561
    504,  -6.65810442,  -3.41564846
    505,   6.67193365,   3.41007018
    506,  -27.3159027,   3.33940291
    507,   27.3259773,  -3.32108045
    508,   12.0589285,   3.71767592
    509,  -12.1257238,   -3.4112072
    510,  -12.1267376,   3.40803027
    511,  -8.48194981,   3.40784502
    512,   8.49639702,  -3.39937997
    513,  -8.48120308,  -3.40794635
    514,   8.50291157,   3.39881301
    515,   20.1143436,   2.36525345
    516,   20.0250664,  -2.40170646
    517,  -10.3016348,  -3.40569186
    518,   -10.303772,   3.40163255
    519,   9.84250641,  -2.53072739
    520,   9.87041378,   2.53148603
    521,   9.39577007, -0.930743456
    522,   9.39940834,  0.926136494
    523,   11.9573164,  -3.45008159
    524,   28.5463295,   2.38716459
    525,  -28.5352001,  -2.40063691
    526,  -28.5377617,   2.40064335
    527,    28.569046,  -2.36923838
    528,   21.7071266,   3.34875441
    529,  0.930368006,   3.25905371
    530, -0.932718158,  -3.25649953
    531,  -19.6879387,   3.28532815
    532,  -19.6938267,  -3.28366733
    533,  0.923103869,  -3.24235344
    534,  -0.92567575,    3.2438364
    535,  -28.1790047,  0.668914557
    536,   28.2707615,  0.606208503
    537,  -28.1784859, -0.679541528
    538,   21.6465359,  -3.31102276
    539,   27.5572758,  0.238488406
    540,  -27.3820152,  0.375640601
    541,  -27.3867855, -0.398067683
    542,  -22.0915184,   2.59852862
    543,  -22.0944653,   -2.6104176
    544,   8.56147194,  -1.29964924
    545,   8.56418705,   1.29064834
    546,  -17.2803593,   2.60777283
    547,  -17.2819672,  -2.58322549
    548,   3.37923574,   2.62615538
    549,  -3.36612344,   2.60436869
    550,   3.36607814,  -2.58901167
    551,  -3.37909532,  -2.61095047
    552,  -23.9937267,   2.58645844
    553,  -23.9932384,  -2.59248972
    554,   24.0207577,   2.55603909
    555,  -15.3977079,   2.59474468
    556,  -15.3981094,  -2.58752418
    557,    5.2605443,   2.60776281
    558,  -5.25261116,   2.61071396
    559,   5.25846863,  -2.59414577
    560,  -5.25444841,  -2.59746122
    561,  -27.7307816,   -2.4849422
    562,  -27.7359695,   2.48088527
    563,   27.7446098,   2.45549011
    564,   27.7614536,  -2.43410611
    565,  -25.8610382,   2.56413889
    566,  -25.8564854,  -2.58147073
    567,   25.8560047,   2.54198551
    568,   25.8583527,  -2.53128505
    569,  -13.5299854,   2.59056354
    570,  -13.5297279,  -2.60111833
    571,   7.14271879,   2.58306003
    572,  -7.09370375,    2.6035912
    573,   7.14197445,   -2.5874753
    574,  -7.09325171,  -2.59044147
    575,  -11.6840143,   2.58152318
    576,  -11.6798687,  -2.59664917
    577,   8.93725014,   2.62231302
    578,   8.92632294,  -2.62346458
    579,   -8.9311924,   2.58882618
    580,  -8.92775345,  -2.58669496
    581,   21.1665936,    2.3862474
    582,  -9.84986687,   2.57950521
    583,  -9.84310246,  -2.58748722
    584, -0.463428259,   2.54359055
    585,  0.472746789,   2.55475569
    586, -0.473839581,  -2.55239964
    587,  0.461919188,  -2.53985476
    588,   8.59883022,  0.435995072
    589,   8.59929562, -0.447434366
    590,  -20.1538277,   2.58853984
    591,  -20.1591492,  -2.58633113
    592,    -19.21875,  -2.57481956
    593,   -19.213829,   2.59197879
    594,   1.41846907,   2.58601213
    595,  -1.40578437,   2.55922461
    596,   1.40499127,  -2.55290747
    597,  -1.41905749,  -2.58025217
    598,   22.1861362,   2.45386052
    599,  -10.7598276,   -2.5896008
    600,  -10.7672577,   2.57437015
    601,   22.0444336,  -2.38783526
    602,  -8.01168633,  -2.58201766
    603,  -8.01377773,    2.5932982
    604,   8.05932903,  -2.62454796
    605,   8.06316757,   2.62107348
    606,  -12.6015568,  -2.59677958
    607,  -12.6040373,   2.58058023
    608,   26.8012142,  -2.49392366
    609,    26.798687,   2.50656533
    610,  -26.7917366,  -2.55081439
    611,  -26.7972698,    2.5392189
    612,  -27.5452175,  -1.08334088
    613,  -27.5462494,   1.06567061
    614,   27.6109772,  0.964115679
    615,   -6.1761713,  -2.58781409
    616,   6.19656515,  -2.58707595
    617,  -6.17591286,   2.60513377
    618,   6.19727516,   2.58816719
    619,  -14.4604883,  -2.59234309
    620,  -14.4601822,   2.58777928
    621,   24.9269371,    -2.524997
    622,   24.9357243,   2.55435491
    623,  -24.9295864,  -2.58632207
    624,  -24.9325161,   2.57114458
    625,   21.0213966,  -2.38715887
    626,   28.4424725, -0.658376873
    627,  -4.32698965,  -2.59647727
    628,   4.32223606,  -2.58573365
    629,  -4.32070065,   2.60523748
    630,    4.3287406,   2.61434674
    631,  -4.76439428,   1.76960909
    632,  -26.7960396,  0.957776546
    633,   4.76891947,  -1.73091817
    634,   26.8050003,  0.741730094
    635,  -25.3833179,    1.7224189
    636,   25.3523827,  -1.68604469
    637,  -14.0186472,  -1.75616682
    638,  -6.61735392,    1.7683785
    639,   6.67073345,  -1.73567295
    640,   7.93565559, -0.872336686
    641,   7.93638802,  0.857597291
    642,  -12.1524086,  -1.76120269
    643,   8.50730801,   2.01095939
    644,   8.50213242,   -2.0162797
    645,  -8.46458912,   1.75029373
    646,   27.6110973, -0.660899818
    647,   27.2313232,  -1.60654283
    648,  -10.3030281,  -1.75015855
    649,   -27.229929,   1.73018765
    650,  -23.0514317,   2.58869672
    651,  -23.0528202,  -2.59359169
    652,  -21.1225033,  -2.61954093
    653,  -18.2495804,   2.62027907
    654,   -16.332037,   2.59612465
    655,  -16.3326092,  -2.57769442
    656,   2.39579272,   2.62997699
    657,  -2.39610124,  -2.61611867
    658,   23.1236248,   2.51428771
    659,  -21.1184578,   2.61098671
    660,  -18.2528667,  -2.59494591
    661,  -2.38170171,    2.6026094
    662,   2.38124895,  -2.58853149
    663, -0.949031293,  -1.72830105
    664,  0.935568571,  -1.70110548
    665, -0.935493886,   1.71264517
    666,  0.949596107,   1.73808622
    667,   23.9884453,  -2.49042416
    668,   23.0312347,    -2.433779
    669,   21.7889671,   1.45277882
    670,  -10.3106403,    1.7281332
    671,  -8.46092701,  -1.73406446
    672,  -12.1567249,   1.72610879
    673,  -6.61696434,  -1.73087311
    674,    6.6713419,   1.73076057
    675,   25.3632278,   1.69482183
    676,  -14.0191669,   1.73707426
    677,  -19.6811447,   1.74546015
    678,  -19.6848316,  -1.72371542
    679,   27.2463493,   1.65162289
    680,  -25.3780403,   -1.7496618
    681,  -27.2219448,  -1.74626935
    682,   23.5835762,   1.71227932
    683,  -4.76973152,  -1.73307776
    684,   4.77449989,   1.76713395
    685,    -15.89575,  -1.72935259
    686,  -15.8956451,   1.74951422
    687,    -21.57724,   1.74410415
    688,  -17.7872295,  -1.71888828
    689,   2.85976768,  -1.71464813
    690,  -2.85956669,   1.74769485
    691,   25.8077984,  0.817909241
    692,  -23.4921646,  -1.74204111
    693,   -23.492527,   1.73834467
    694,   7.13768482,  0.860981822
    695,   23.2535725,  0.981432736
    696, -0.465809971,  0.862579584
    697,  0.475311548,  0.877492547
    698, -0.475063384, -0.864836872
    699,  0.466725767, -0.847383678
    700,  -25.8778553,   0.87288928
    701,  -16.3836727,    -0.856022
    702,  -16.3836002,  0.891057312
    703,   5.23150301,  0.895623326
    704,   5.22855663,  -0.86295557
    705,  -5.21791458,  0.911226869
    706,  -5.22068167, -0.853411913
    707,   25.7788715, -0.853136182
    708,  -25.8710079, -0.906464696
    709,  -10.7735987,  0.857952416
    710,  -13.5639591,  0.862734735
    711,   -13.563056, -0.897619128
    712,   7.13724709, -0.871043563
    713,  -7.06996679,  0.905105948
    714,  -7.06925011, -0.856175065
    715,   -9.8428278, -0.884408653
    716,  -20.1478214,  0.882588208
    717,  -20.1497173, -0.862684965
    718,  -11.6992445,  0.853491545
    719,  -11.6956902,  -0.90101546
    720,   -19.212038, -0.850395203
    721,  -19.2103252,  0.889397323
    722,   -8.9220953,  0.881422937
    723,  -8.91890049,  -0.87041384
    724,  -9.84743309,  0.865409791
    725,   24.8648949, -0.822304547
    726,   -7.9950552, -0.860167205
    727,  -7.99658966,  0.891312063
    728,  -10.7687044, -0.890857816
    729,  -12.6264696, -0.898156285
    730,  -12.6282692,  0.854410946
    731,   24.8851643,  0.861822426
    732,  -6.14625359,  -0.85221982
    733,  -6.14591455,  0.906026661
    734,   6.18158197, -0.869125545
    735,   6.18236017,  0.875409722
    736,  -14.5019455,  -0.88333112
    737,  -14.5022211,  0.870519698
    738,   -15.440774,  0.879505277
    739,  -24.9110394, -0.886744082
    740,   -15.440753, -0.867819905
    741,  -24.9137192,  0.863254964
    742,   -4.2881012, -0.856444299
    743,   4.28577232, -0.848671377
    744,  -4.28233576,   0.90231514
    745,   4.29167318,  0.908230186
    746,   1.41623044,  -0.83696723
    747,  -1.42405879, -0.872616887
    748,   1.42526615,  0.896327913
    749,  -1.41505051,  0.861514688
    750,   24.0087605,  0.913676918
    751,   26.6767998, -0.828323483
    752,   23.5770111,  -3.32470202
    753,   21.5301971,  0.504430056
    754,  -2.87375331,  -1.74492264
    755,   2.87413096,   1.77771139
    756,  -17.7855396,    1.7592423
    757,  -21.5796719,   -1.7498163
    758,    4.7573843, 0.0238034558
    759,  -4.74941063, 0.0272975024
    760,   -25.413784, -0.0144400885
    761,  -14.0350895, -0.0124490643
    762,  -6.60617304, 0.0273716282
    763,  -12.1642122, -0.0239090491
    764,  -8.45708752, 0.0109282965
    765,   6.67241859, -0.000507235236
    766,  -10.3084116, -0.0133986883
    767,  -15.9150419, 0.0118802963
    768,  0.946673989, 0.0225337297
    769, -0.945396721, -0.0021374349
    770,   25.3252583, 0.000933701522
    771,   23.5087337,  0.181231484
    772,  -19.6794319, 0.0153763155
    773,  -22.9970169,  0.874707818
    774,  -22.9970741, -0.876594543
    775,   -17.324913,    0.8953017
    776,  -17.3254852, -0.847813964
    777,  -21.0896149,  0.876681089
    778,  -21.0911541, -0.872729301
    779,   -18.267561,  0.893468976
    780,  -18.2687855, -0.846363068
    781,  -26.8001938,  -0.98616153
    782,   3.34141278,  0.914238513
    783,  -23.9569187,  0.867420733
    784,  -3.33244419,  0.888469994
    785,   3.33359838, -0.839295924
    786,  -3.34014559,  -0.86551404
    787,  -23.9559593, -0.877705514
    788,  -2.38228106, -0.871061862
    789,   2.38321233,   0.90802294
    790,  -2.37424707,  0.872398496
    791,   2.37509012,  -0.83509326
    792,  -22.0421925,  0.874477208
    793,   26.9722157, -0.111068524
    794,   23.9368744, -0.742750466
    795,  -22.0430412, -0.875132918
    796,   21.9480648,  -0.44723013
    797,   2.85664105, 0.0382928662
    798,  -2.85545874, 0.00743089709
    799,  -23.4745426, -0.00336382049
    800,  -17.7986031, 0.0245688222
    801,  -21.5647163, 0.00175158633
    802,   22.9741802, -0.592629015
    803,   23.4717846,  -1.56726146
    804,    21.445713,   -1.3930192
*Element, type=CPS3
   1, 335,  11, 235
   2, 436, 337, 100
   3,  10, 234, 303
   4, 303, 234,  76
   5, 392, 233,   9
   6, 523, 435, 232
   7, 474, 384, 434
   8, 433, 384, 107
   9, 432, 382, 298
  10, 431, 381, 297
  11, 430, 380, 296
  12, 336, 294, 295
  13, 428, 113, 378
  14, 487, 377, 427
  15, 496, 376, 426
  16, 504, 375, 425
  17, 513, 374, 424
  18, 517, 373, 423
  19, 422, 372, 287
  20, 421, 371, 286
  21, 334, 333, 285
  22, 479, 332, 121
  23, 331, 123, 320
  24, 419, 369, 281
  25, 330, 280,  56
  26, 329, 279,  55
  27, 328, 278,  54
  28, 453, 276, 327
  29, 327, 277,  53
  30, 472, 236, 100
  31, 436,  11, 335
  32, 437, 337, 305
  33, 516, 490, 101
  34, 452,  13, 318
  35, 753, 669, 219
  36, 695, 682, 220
  37, 731, 675, 221
  38, 539,  95, 536
  39, 536, 459, 223
  40, 460, 459,  88
  41, 470, 460, 315
  42, 524, 460, 470
  43, 454, 316, 321
  44, 338, 238, 322
  45, 322, 238,  15
  46, 339,  15, 239
  47, 323, 239,  16
  48, 622, 480, 216
  49, 691, 634, 222
  50, 523, 385, 435
  51, 471,   8, 231
  52, 521, 445, 447
  53, 588, 522, 545
  54, 618, 505, 194
  55, 497, 342, 400
  56, 401, 341, 196
  57, 488, 340, 401
  58, 341,  28, 253
  59, 402, 196, 341
  60, 666, 594, 585
  61, 697, 666, 175
  62, 699, 133, 664
  63, 596, 533, 111
  64, 664, 587, 596
  65, 662, 486, 550
  66, 550, 486, 110
  67, 797, 791, 785
  68, 789, 782, 755
  69, 548, 195, 488
  70, 656, 488, 196
  71, 529, 196, 402
  72, 448, 447, 230
  73, 522, 443, 170
  74, 643, 605, 171
  75, 505, 348, 399
  76, 400, 342, 251
  77, 522, 448, 443
  78, 520, 451, 473
  79, 397, 344, 192
  80, 473, 343, 397
  81, 344,  24, 249
  82, 514, 344, 398
  83, 577, 192, 514
  84, 520, 473, 192
  85, 395, 227, 246
  86, 227,  21, 246
  87,   3,  20, 245
  88, 326,   3, 225
  89, 345, 244, 326
  90, 394, 345, 213
  91, 515, 450, 444
  92, 669, 220, 598
  93, 669, 598, 581
  94, 598, 528, 581
  95, 658, 476, 215
  96, 750, 221, 682
  97,   2, 224, 213
  98, 515, 214, 491
  99, 449, 219, 444
 100, 321, 316, 237
 101, 346,  16, 240
 102, 324, 240,  17
 103, 554, 216, 476
 104, 347,  17, 241
 105, 393, 347, 241
 106, 528, 347, 393
 107, 325, 214, 319
 108, 396, 391, 247
 109, 348,  25, 250
 110, 349,  29, 254
 111, 350, 349, 254
 112, 665, 584, 595
 113, 749, 696, 665
 114, 747, 134, 663
 115, 586, 530, 112
 116, 663, 597, 586
 117, 351,  30, 256
 118, 404, 351, 256
 119, 549, 485, 199
 120, 798, 790, 784
 121, 788, 786, 754
 122, 551, 114, 487
 123, 657, 487, 113
 124, 352,  31, 257
 125, 405, 352, 257
 126, 558, 494, 200
 127, 705, 631, 178
 128, 706, 136, 683
 129, 560, 115, 496
 130, 627, 496, 114
 131, 353,  32, 258
 132, 406, 353, 258
 133, 572, 502, 201
 134, 713, 638, 179
 135, 714, 137, 673
 136, 574, 116, 504
 137, 615, 504, 115
 138, 354,  33, 259
 139, 407, 355, 202
 140, 579, 511, 202
 141, 722, 645, 180
 142, 723, 138, 671
 143, 580, 117, 513
 144, 602, 513, 116
 145, 355,  34, 260
 146, 518, 355, 408
 147, 600, 582, 518
 148, 709, 670, 181
 149, 728, 139, 648
 150, 599, 118, 517
 151, 583, 517, 117
 152, 356,  35, 261
 153, 510, 356, 409
 154, 607, 510, 204
 155, 730, 672, 182
 156, 729, 642, 719
 157, 606, 509, 576
 158, 576, 509, 118
 159, 357,  36, 262
 160, 501, 357, 410
 161, 620, 501, 205
 162, 737, 676, 183
 163, 736, 637, 711
 164, 619, 500, 570
 165, 570, 500, 119
 166, 358,  37, 263
 167, 493, 358, 411
 168, 654, 493, 206
 169, 702, 686, 184
 170, 701, 142, 685
 171, 655, 492, 556
 172, 556, 492, 120
 173, 359,  38, 264
 174, 484, 359, 412
 175, 653, 484, 207
 176, 800, 775, 779
 177, 780, 688, 776
 178, 660, 479, 547
 179, 547, 479, 121
 180, 360,  39, 265
 181, 413, 207, 360
 182, 677, 593, 590
 183, 716, 677, 186
 184, 717, 144, 678
 185, 592, 532, 122
 186, 678, 591, 592
 187, 361,  40, 267
 188, 415, 361, 267
 189, 542, 482, 209
 190, 801, 777, 792
 191, 795, 145, 757
 192, 543, 124, 483
 193, 757, 543, 652
 194, 362,  41, 268
 195, 416, 362, 268
 196, 552, 489, 210
 197, 783, 693, 188
 198, 787, 692, 774
 199, 553, 125, 478
 200, 651, 478, 124
 201, 363,  42, 269
 202, 417, 363, 269
 203, 565, 498, 211
 204, 700, 635, 189
 205, 708, 147, 680
 206, 566, 126, 481
 207, 623, 481, 125
 208, 364,  43, 270
 209, 418, 364, 270
 210, 562, 506, 212
 211, 540, 535, 169
 212, 612, 537, 148
 213, 561, 525, 127
 214, 610, 561, 477
 215, 365,  44, 271
 216, 463, 272,  47
 217, 526, 458, 464
 218, 535, 457, 465
 219, 462, 461,  50
 220, 525, 462, 466
 221, 466, 462, 275
 222, 366,  53, 278
 223, 367,  54, 279
 224, 368,  55, 280
 225, 369,  56, 281
 226, 320,  57, 282
 227, 370,  58, 284
 228, 333, 332,  59
 229, 371, 334,  60
 230, 372,  61, 287
 231, 373,  62, 288
 232, 374,  63, 289
 233, 375,  64, 290
 234, 376,  65, 291
 235, 377,  66, 292
 236, 378,  67, 293
 237, 379,  68, 294
 238, 380,  69, 296
 239, 381,  70, 297
 240, 382,  71, 298
 241, 383,  72, 299
 242, 384,  73, 300
 243, 385,  74, 301
 244, 437, 100, 337
 245, 386,  79, 307
 246, 804, 601,  91
 247, 804,  99,  90
 248, 804, 796,  99
 249, 438, 386, 101
 250, 387,  80, 308
 251, 668,  91, 601
 252, 802,  98, 796
 253, 803, 794, 802
 254, 439, 387, 102
 255, 388,  81, 309
 256, 568, 499, 104
 257, 707, 636,  93
 258, 725,  92, 636
 259, 440, 388, 103
 260, 389,  82, 310
 261, 564, 507, 105
 262, 793, 646, 539
 263, 751, 647, 646
 264, 441, 389, 104
 265, 390,  83, 311
 266, 467, 312,  85
 267, 468, 455, 313
 268, 527, 455, 468
 269, 456,  86, 314
 270, 626, 456, 469
 271, 452, 446,  90
 272, 516, 472, 490
 273, 538, 101, 386
 274, 752, 667, 668
 275, 621, 499, 568
 276, 608, 507, 564
 277, 519, 474, 471
 278, 519, 471, 445
 279, 644, 129, 604
 280, 573, 503, 108
 281, 559, 495, 109
 282, 628, 495, 559
 283, 604, 512, 578
 284, 616, 503, 573
 285, 589, 521, 149
 286, 544, 128, 521
 287, 712, 639, 129
 288, 704, 633, 130
 289, 743, 633, 704
 290, 734, 639, 712
 291, 746, 699, 664
 292, 791, 689, 785
 293, 694, 641, 171
 294, 735, 674, 172
 295, 703, 172, 684
 296, 745, 684, 173
 297, 748, 174, 666
 298, 797, 782, 789
 299, 698, 663, 133
 300, 798, 786, 788
 301, 742, 683, 135
 302, 732, 673, 136
 303, 726, 671, 137
 304, 715, 648, 138
 305, 719, 642, 139
 306, 711, 637, 140
 307, 740, 701, 685
 308, 800, 780, 776
 309, 720, 717, 678
 310, 801, 795, 778
 311, 774, 692, 145
 312, 739, 680, 146
 313, 541, 169, 537
 314, 537, 465, 461
 315, 545, 522, 170
 316, 557, 194, 497
 317, 630, 497, 195
 318, 696, 175, 665
 319, 790, 690, 784
 320, 744, 631, 705
 321, 733, 638, 713
 322, 727, 645, 722
 323, 724, 180, 670
 324, 718, 181, 672
 325, 710, 182, 676
 326, 738, 686, 702
 327, 779, 775, 756
 328, 721, 185, 677
 329, 792, 777, 687
 330, 773, 187, 693
 331, 741, 635, 700
 332, 613, 535, 540
 333, 457,  48, 274
 334, 571, 193, 505
 335, 534, 197, 350
 336, 661, 485, 549
 337, 629, 494, 558
 338, 617, 502, 572
 339, 603, 511, 579
 340, 582, 202, 518
 341, 575, 203, 510
 342, 569, 204, 501
 343, 555, 205, 493
 344, 546, 206, 484
 345, 531, 207, 413
 346, 659, 482, 542
 347, 650, 489, 552
 348, 624, 498, 565
 349, 611, 211, 506
 350, 464, 458, 273
 351, 567, 217, 480
 352, 609, 475, 217
 353, 563, 524, 218
 354, 508, 396, 191
 355, 515, 491, 450
 356, 614, 536, 223
 357, 191,   5, 228
 358, 450, 224,   1
 359, 345, 326,   2
 360, 245, 226,   3
 361, 227, 226,  21
 362, 391,  22, 247
 363, 451,   5, 191
 364, 448, 230,   6
 365, 445, 231,   7
 366, 523,   8, 106
 367, 392, 302, 233
 368, 234, 233,  76
 369, 335,  10,  77
 370, 236,  11, 100
 371, 338, 321,  14
 372, 339, 322,  15
 373, 346, 323,  16
 374, 347, 324,  17
 375, 393,  18, 319
 376, 394, 325, 243
 377, 394, 243,  19
 378, 326, 244,  20
 379, 245,  21, 226
 380, 395, 246,  22
 381, 396, 247,  23
 382, 397,  24, 344
 383, 398,  25, 348
 384, 399,  26, 342
 385, 400,  27, 340
 386, 401,  28, 341
 387, 402,  29, 349
 388, 350, 197, 349
 389, 403, 255,  30
 390, 404, 256,  31
 391, 405, 257,  32
 392, 406, 258,  33
 393, 407,  34, 355
 394, 408,  35, 356
 395, 409,  36, 357
 396, 410,  37, 358
 397, 411,  38, 359
 398, 412,  39, 360
 399, 414, 413, 266
 400, 414, 266,  40
 401, 415, 267,  41
 402, 416, 268,  42
 403, 417, 269,  43
 404, 418, 270,  44
 405, 271,  46, 272
 406, 463, 458, 212
 407, 464, 273,  48
 408, 465, 274,  49
 409, 466,  51, 453
 410, 276,  52, 277
 411, 366, 327,  53
 412, 367, 328,  54
 413, 368, 329,  55
 414, 369, 330,  56
 415, 419,  57, 320
 416, 420, 331, 283
 417, 420, 283,  58
 418, 332, 284,  59
 419, 334, 285,  60
 420, 421, 286,  61
 421, 422, 287,  62
 422, 423,  63, 374
 423, 424,  64, 375
 424, 425,  65, 376
 425, 426,  66, 377
 426, 427,  67, 378
 427, 428,  68, 379
 428, 379, 336, 112
 429, 429, 295,  69
 430, 430, 296,  70
 431, 431, 297,  71
 432, 432, 298,  72
 433, 433,  73, 384
 434, 434,  74, 385
 435, 435,  75, 392
 436, 302,  76, 233
 437, 303,  77,  10
 438, 436,  78, 337
 439, 438, 437, 306
 440, 438, 306,  79
 441, 439, 307,  80
 442, 440, 308,  81
 443, 441, 309,  82
 444, 442, 310,  83
 445, 311,  84, 312
 446, 467, 455, 105
 447, 468, 313,  86
 448, 469, 314,  87
 449, 470,  89, 454
 450, 316,  45, 237
 451, 452, 449,  13
 452, 446, 318,  12
 453, 319,  18, 242
 454, 325, 319, 242
 455, 331, 320, 282
 456, 483, 369, 419
 457, 321, 237,  14
 458, 454, 321, 218
 459, 475, 322, 217
 460, 475, 338, 322
 461, 480, 323, 216
 462, 480, 339, 323
 463, 476, 324, 215
 464, 476, 346, 324
 465, 325, 242, 243
 466, 491, 325, 213
 467, 326,  20,   3
 468, 326, 225,   2
 469, 453, 327, 127
 470, 327, 276, 277
 471, 477, 328, 126
 472, 477, 366, 328
 473, 481, 329, 125
 474, 481, 367, 329
 475, 478, 330, 124
 476, 478, 368, 330
 477, 331, 282, 283
 478, 532, 331, 122
 479, 333,  59, 285
 480, 479, 370, 332
 481, 492, 333, 334
 482, 333, 121, 332
 483, 371,  60, 286
 484, 492, 334, 120
 485, 335, 235,  10
 486, 335,  77, 304
 487, 429, 336, 295
 488, 533, 336, 111
 489, 436, 100,  11
 490, 337,  78, 305
 491, 338, 218, 321
 492, 338,  14, 238
 493, 339, 239, 323
 494, 339, 217, 322
 495, 497, 400, 195
 496, 340,  27, 252
 497, 402, 349, 197
 498, 488, 401, 196
 499, 505, 399, 194
 500, 342,  26, 251
 501, 396, 343, 191
 502, 343,  23, 248
 503, 398, 348, 193
 504, 473, 397, 192
 505, 345,   2, 213
 506, 345,  19, 244
 507, 346, 240, 324
 508, 346, 216, 323
 509, 393, 241,  18
 510, 347, 215, 324
 511, 399, 348, 250
 512, 514, 398, 193
 513, 350, 254, 255
 514, 529, 402, 197
 515, 403, 350, 255
 516, 534, 350, 198
 517, 485, 351, 404
 518, 403, 351, 198
 519, 494, 352, 405
 520, 404, 352, 199
 521, 502, 353, 406
 522, 405, 353, 200
 523, 511, 354, 407
 524, 406, 354, 201
 525, 408, 356, 203
 526, 511, 407, 202
 527, 409, 357, 204
 528, 518, 408, 203
 529, 410, 358, 205
 530, 510, 409, 204
 531, 411, 359, 206
 532, 501, 410, 205
 533, 412, 360, 207
 534, 493, 411, 206
 535, 413, 360, 265
 536, 484, 412, 207
 537, 482, 361, 415
 538, 414, 361, 208
 539, 489, 362, 416
 540, 415, 362, 209
 541, 498, 363, 417
 542, 416, 363, 210
 543, 506, 364, 418
 544, 417, 364, 211
 545, 418, 365, 212
 546, 365, 271, 272
 547, 366, 278, 328
 548, 366, 127, 327
 549, 367, 279, 329
 550, 367, 126, 328
 551, 368, 280, 330
 552, 368, 125, 329
 553, 419, 281,  57
 554, 369, 124, 330
 555, 420, 370, 122
 556, 370, 284, 332
 557, 500, 371, 421
 558, 371, 120, 334
 559, 509, 372, 422
 560, 421, 372, 119
 561, 423, 374, 117
 562, 422, 373, 118
 563, 424, 375, 116
 564, 517, 423, 117
 565, 425, 376, 115
 566, 513, 424, 116
 567, 426, 377, 114
 568, 504, 425, 115
 569, 427, 378, 113
 570, 496, 426, 114
 571, 428, 379, 112
 572, 487, 427, 113
 573, 379, 294, 336
 574, 530, 428, 112
 575, 486, 380, 430
 576, 429, 380, 111
 577, 495, 381, 431
 578, 430, 381, 110
 579, 503, 382, 432
 580, 431, 382, 109
 581, 512, 383, 433
 582, 432, 383, 108
 583, 434, 385, 106
 584, 512, 433, 107
 585, 435, 392,   9
 586, 474, 434, 106
 587, 439, 386, 307
 588, 538, 386, 439
 589, 440, 387, 308
 590, 752, 387, 440
 591, 441, 388, 309
 592, 499, 388, 441
 593, 442, 389, 310
 594, 507, 389, 442
 595, 442, 390, 105
 596, 390, 311, 312
 597, 391, 228,   4
 598, 395, 391,   4
 599, 435,   9, 232
 600, 392,  75, 302
 601, 393, 319, 214
 602, 528, 393, 214
 603, 394,  19, 345
 604, 394, 213, 325
 605, 395,  22, 391
 606, 395,   4, 227
 607, 396,  23, 343
 608, 508, 191, 228
 609, 397, 343, 248
 610, 397, 248,  24
 611, 398, 344, 249
 612, 398, 249,  25
 613, 399, 250,  26
 614, 399, 342, 194
 615, 400, 251,  27
 616, 400, 340, 195
 617, 401, 340, 252
 618, 401, 252,  28
 619, 402, 341, 253
 620, 402, 253,  29
 621, 403,  30, 351
 622, 403, 198, 350
 623, 404,  31, 352
 624, 485, 404, 199
 625, 405,  32, 353
 626, 494, 405, 200
 627, 406,  33, 354
 628, 502, 406, 201
 629, 407, 354, 259
 630, 407, 259,  34
 631, 408, 355, 260
 632, 408, 260,  35
 633, 409, 356, 261
 634, 409, 261,  36
 635, 410, 357, 262
 636, 410, 262,  37
 637, 411, 358, 263
 638, 411, 263,  38
 639, 412, 359, 264
 640, 412, 264,  39
 641, 413, 265, 266
 642, 531, 413, 208
 643, 414,  40, 361
 644, 414, 208, 413
 645, 415,  41, 362
 646, 482, 415, 209
 647, 416,  42, 363
 648, 489, 416, 210
 649, 417,  43, 364
 650, 498, 417, 211
 651, 418,  44, 365
 652, 506, 418, 212
 653, 419, 320, 123
 654, 483, 419, 123
 655, 420,  58, 370
 656, 420, 122, 331
 657, 421,  61, 372
 658, 500, 421, 119
 659, 422,  62, 373
 660, 509, 422, 118
 661, 423, 373, 288
 662, 423, 288,  63
 663, 424, 374, 289
 664, 424, 289,  64
 665, 425, 375, 290
 666, 425, 290,  65
 667, 426, 376, 291
 668, 426, 291,  66
 669, 427, 377, 292
 670, 427, 292,  67
 671, 428, 378, 293
 672, 428, 293,  68
 673, 429,  69, 380
 674, 429, 111, 336
 675, 430,  70, 381
 676, 486, 430, 110
 677, 431,  71, 382
 678, 495, 431, 109
 679, 432,  72, 383
 680, 503, 432, 108
 681, 433, 383, 299
 682, 433, 299,  73
 683, 434, 384, 300
 684, 434, 300,  74
 685, 435, 385, 301
 686, 435, 301,  75
 687, 436, 335, 304
 688, 436, 304,  78
 689, 437, 305, 306
 690, 490, 437, 101
 691, 438,  79, 386
 692, 438, 101, 437
 693, 439,  80, 387
 694, 538, 439, 102
 695, 440,  81, 388
 696, 752, 440, 103
 697, 441,  82, 389
 698, 499, 441, 104
 699, 442,  83, 390
 700, 507, 442, 105
 701, 443,   6, 229
 702, 451, 443, 229
 703, 444,   1, 317
 704, 449, 444, 317
 705, 447, 445,   7
 706, 519, 107, 474
 707, 472, 446,  12
 708, 452,  90,  99
 709, 447,   7, 230
 710, 521, 447, 149
 711, 448, 149, 447
 712, 448,   6, 443
 713, 449, 317,  13
 714, 449,  99, 219
 715, 450, 213, 224
 716, 450,   1, 444
 717, 451, 229,   5
 718, 473, 451, 191
 719, 452,  99, 449
 720, 452, 318, 446
 721, 525, 466, 127
 722, 453,  51, 276
 723, 524, 470, 218
 724, 454,  89, 316
 725, 467, 105, 390
 726, 455,  85, 313
 727, 468, 456,  94
 728, 469, 456, 314
 729, 464, 457, 190
 730, 465, 457, 274
 731, 463, 212, 365
 732, 458,  47, 273
 733, 536, 469, 459
 734, 459,  87,  88
 735, 460, 223, 459
 736, 460,  88, 315
 737, 461,  49,  50
 738, 537, 461, 148
 739, 462, 148, 461
 740, 462,  50, 275
 741, 463, 365, 272
 742, 463,  47, 458
 743, 464,  48, 457
 744, 526, 464, 190
 745, 465,  49, 461
 746, 535, 465, 169
 747, 466, 275,  51
 748, 466, 453, 127
 749, 467, 390, 312
 750, 467,  85, 455
 751, 468,  86, 456
 752, 527, 468,  94
 753, 469,  87, 459
 754, 626, 469,  95
 755, 470, 315,  89
 756, 470, 454, 218
 757, 471, 106,   8
 758, 471, 231, 445
 759, 472,  12, 236
 760, 490, 472, 100
 761, 473, 191, 343
 762, 577, 520, 192
 763, 474, 107, 384
 764, 474, 106, 471
 765, 609, 563, 475
 766, 475, 218, 338
 767, 658, 598, 220
 768, 476, 216, 346
 769, 610, 126, 566
 770, 477, 127, 366
 771, 651, 553, 478
 772, 478, 125, 368
 773, 655, 547, 121
 774, 479, 122, 370
 775, 622, 567, 480
 776, 480, 217, 339
 777, 623, 566, 481
 778, 481, 126, 367
 779, 650, 542, 209
 780, 482, 208, 361
 781, 652, 483, 123
 782, 483, 124, 369
 783, 653, 593, 185
 784, 484, 206, 359
 785, 629, 549, 199
 786, 485, 198, 351
 787, 628, 550, 110
 788, 486, 111, 380
 789, 657, 597, 134
 790, 487, 114, 377
 791, 656, 594, 174
 792, 488, 195, 340
 793, 624, 552, 210
 794, 489, 209, 362
 795, 490, 100, 437
 796, 625, 101, 538
 797, 491, 214, 325
 798, 491, 213, 450
 799, 619, 556, 120
 800, 492, 121, 333
 801, 654, 555, 493
 802, 493, 205, 358
 803, 617, 558, 200
 804, 494, 199, 352
 805, 616, 559, 109
 806, 495, 110, 381
 807, 627, 560, 496
 808, 496, 115, 376
 809, 630, 557, 497
 810, 497, 194, 342
 811, 611, 565, 211
 812, 498, 210, 363
 813, 608, 568, 104
 814, 499, 103, 388
 815, 606, 570, 119
 816, 500, 120, 371
 817, 620, 569, 501
 818, 501, 204, 357
 819, 603, 572, 201
 820, 502, 200, 353
 821, 604, 573, 108
 822, 503, 109, 382
 823, 615, 574, 504
 824, 504, 116, 375
 825, 618, 571, 505
 826, 505, 193, 348
 827, 562, 212, 526
 828, 506, 211, 364
 829, 564, 105, 527
 830, 507, 104, 389
 831, 508, 228, 391
 832, 508, 391, 396
 833, 599, 576, 118
 834, 509, 119, 372
 835, 607, 575, 510
 836, 510, 203, 356
 837, 582, 579, 202
 838, 511, 201, 354
 839, 578, 107, 519
 840, 512, 108, 383
 841, 602, 580, 513
 842, 513, 117, 374
 843, 605, 577, 514
 844, 514, 192, 344
 845, 515, 444, 219
 846, 581, 515, 219
 847, 516,  90, 446
 848, 516, 446, 472
 849, 583, 117, 580
 850, 517, 118, 373
 851, 600, 203, 575
 852, 518, 202, 355
 853, 519, 445, 128
 854, 578, 519, 128
 855, 520, 170, 443
 856, 520, 443, 451
 857, 589, 149, 588
 858, 521, 128, 445
 859, 643, 170, 577
 860, 522, 149, 448
 861, 523, 232,   8
 862, 523, 106, 385
 863, 563, 218, 475
 864, 524, 223, 460
 865, 561, 127, 477
 866, 525, 148, 462
 867, 562, 526, 190
 868, 526, 212, 458
 869, 564, 527,  94
 870, 527, 105, 455
 871, 528, 215, 347
 872, 581, 528, 214
 873, 585, 197, 584
 874, 594, 529, 585
 875, 597, 530, 586
 876, 530, 113, 428
 877, 590, 531, 208
 878, 593, 531, 590
 879, 592, 591, 532
 880, 532, 123, 331
 881, 587, 586, 112
 882, 533, 112, 336
 883, 595, 534, 198
 884, 595, 584, 534
 885, 541, 540, 169
 886, 535, 190, 457
 887, 614, 539, 536
 888, 536,  95, 469
 889, 612, 541, 537
 890, 537, 169, 465
 891, 601, 538, 102
 892, 625, 538, 601
 893, 634, 539, 614
 894, 793, 751, 646
 895, 632, 613, 540
 896, 632, 540, 168
 897, 781, 541, 612
 898, 541, 168, 540
 899, 687, 659, 542
 900, 659, 590, 208
 901, 652, 591, 144
 902, 651, 543, 145
 903, 640, 544, 589
 904, 644, 604, 578
 905, 641, 588, 545
 906, 641, 545, 171
 907, 756, 546, 653
 908, 654, 546, 184
 909, 688, 660, 547
 910, 660, 592, 122
 911, 755, 548, 656
 912, 630, 548, 173
 913, 690, 661, 549
 914, 661, 595, 198
 915, 689, 662, 550
 916, 662, 596, 111
 917, 754, 551, 657
 918, 627, 551, 135
 919, 693, 552, 188
 920, 693, 650, 552
 921, 692, 553, 651
 922, 623, 553, 146
 923, 682, 554, 658
 924, 622, 554, 221
 925, 686, 555, 654
 926, 620, 555, 183
 927, 685, 556, 141
 928, 685, 655, 556
 929, 684, 557, 630
 930, 618, 557, 172
 931, 631, 629, 558
 932, 631, 558, 178
 933, 633, 628, 559
 934, 633, 559, 130
 935, 683, 560, 627
 936, 615, 560, 136
 937, 681, 612, 148
 938, 561, 148, 525
 939, 649, 190, 613
 940, 649, 611, 562
 941, 679, 614, 223
 942, 563, 223, 524
 943, 647, 564,  94
 944, 647, 608, 564
 945, 635, 624, 565
 946, 635, 565, 189
 947, 680, 566, 623
 948, 610, 566, 147
 949, 675, 567, 622
 950, 609, 567, 222
 951, 636, 621, 568
 952, 636, 568,  93
 953, 676, 569, 620
 954, 607, 569, 182
 955, 637, 619, 570
 956, 637, 570, 140
 957, 674, 571, 618
 958, 605, 571, 171
 959, 638, 617, 572
 960, 638, 572, 179
 961, 639, 616, 573
 962, 639, 573, 129
 963, 673, 574, 615
 964, 602, 574, 137
 965, 672, 575, 607
 966, 600, 575, 181
 967, 642, 606, 576
 968, 642, 576, 139
 969, 577, 170, 520
 970, 605, 514, 193
 971, 578, 512, 107
 972, 644, 128, 544
 973, 645, 603, 579
 974, 645, 579, 180
 975, 671, 580, 602
 976, 583, 580, 138
 977, 581, 214, 515
 978, 669, 581, 219
 979, 670, 582, 600
 980, 582, 180, 579
 981, 648, 583, 138
 982, 648, 599, 583
 983, 585, 584, 175
 984, 584, 197, 534
 985, 666, 585, 175
 986, 585, 529, 197
 987, 587, 112, 533
 988, 663, 586, 133
 989, 596, 587, 533
 990, 587, 133, 586
 991, 589, 588, 150
 992, 588, 149, 522
 993, 640, 589, 150
 994, 589, 544, 521
 995, 659, 208, 482
 996, 677, 590, 186
 997, 757, 652, 144
 998, 591, 123, 532
 999, 660, 122, 479
1000, 678, 592, 143
1001, 756, 653, 185
1002, 593, 207, 531
1003, 755, 656, 174
1004, 594, 196, 529
1005, 661, 198, 485
1006, 665, 595, 176
1007, 662, 111, 486
1008, 664, 596, 132
1009, 754, 657, 134
1010, 597, 113, 530
1011, 682, 658, 220
1012, 598, 215, 528
1013, 599, 139, 576
1014, 599, 517, 583
1015, 600, 518, 203
1016, 670, 600, 181
1017, 803, 667,  92
1018, 804, 625, 601
1019, 602, 116, 574
1020, 671, 602, 137
1021, 603, 179, 572
1022, 603, 201, 511
1023, 604, 129, 573
1024, 604, 108, 512
1025, 605, 193, 571
1026, 643, 171, 545
1027, 606, 140, 570
1028, 606, 119, 509
1029, 607, 204, 569
1030, 672, 607, 182
1031, 608,  93, 568
1032, 608, 104, 507
1033, 609, 217, 567
1034, 679, 609, 222
1035, 610, 477, 126
1036, 681, 610, 147
1037, 611, 189, 565
1038, 611, 506, 562
1039, 681, 148, 561
1040, 781, 612, 681
1041, 649, 613, 632
1042, 613, 190, 535
1043, 679, 223, 563
1044, 679, 634, 614
1045, 615, 115, 560
1046, 673, 615, 136
1047, 616, 130, 559
1048, 616, 109, 503
1049, 617, 178, 558
1050, 617, 200, 502
1051, 618, 194, 557
1052, 674, 618, 172
1053, 619, 141, 556
1054, 619, 120, 500
1055, 620, 205, 555
1056, 676, 620, 183
1057, 667, 621,  92
1058, 621, 103, 499
1059, 622, 216, 554
1060, 675, 622, 221
1061, 623, 125, 553
1062, 680, 623, 146
1063, 624, 188, 552
1064, 624, 210, 498
1065, 625,  90, 516
1066, 625, 516, 101
1067, 646, 626,  95
1068, 626,  94, 456
1069, 627, 114, 551
1070, 683, 627, 135
1071, 628, 131, 550
1072, 628, 110, 495
1073, 629, 177, 549
1074, 629, 199, 494
1075, 630, 195, 548
1076, 684, 630, 173
1077, 733, 705, 178
1078, 631, 177, 629
1079, 700, 632, 168
1080, 649, 632, 189
1081, 734, 704, 130
1082, 633, 131, 628
1083, 691, 222, 675
1084, 793, 634,  96
1085, 700, 189, 632
1086, 635, 188, 624
1087, 751, 707,  93
1088, 636,  92, 621
1089, 729, 711, 140
1090, 637, 141, 619
1091, 727, 713, 179
1092, 638, 178, 617
1093, 712, 129, 640
1094, 639, 130, 616
1095, 712, 640, 150
1096, 640, 129, 544
1097, 694, 171, 674
1098, 641, 150, 588
1099, 728, 719, 139
1100, 642, 140, 606
1101, 643, 545, 170
1102, 643, 577, 605
1103, 644, 578, 128
1104, 644, 544, 129
1105, 724, 722, 180
1106, 645, 179, 603
1107, 646,  94, 626
1108, 646,  95, 539
1109, 647,  94, 646
1110, 647,  93, 608
1111, 723, 715, 138
1112, 648, 139, 599
1113, 649, 189, 611
1114, 649, 562, 190
1115, 650, 187, 542
1116, 650, 209, 489
1117, 651, 124, 543
1118, 692, 651, 145
1119, 652, 543, 483
1120, 652, 123, 591
1121, 653, 546, 484
1122, 653, 207, 593
1123, 654, 206, 546
1124, 686, 654, 184
1125, 655, 142, 547
1126, 655, 121, 492
1127, 656, 548, 488
1128, 656, 196, 594
1129, 657, 551, 487
1130, 657, 113, 597
1131, 658, 554, 476
1132, 658, 215, 598
1133, 687, 542, 187
1134, 659, 186, 590
1135, 688, 547, 142
1136, 660, 143, 592
1137, 690, 549, 177
1138, 661, 176, 595
1139, 689, 550, 131
1140, 662, 132, 596
1141, 699, 698, 133
1142, 663, 134, 597
1143, 791, 746, 132
1144, 664, 133, 587
1145, 790, 749, 176
1146, 665, 175, 584
1147, 697, 175, 696
1148, 666, 174, 594
1149, 667, 103, 621
1150, 803, 668, 667
1151, 668, 601, 102
1152, 752, 668, 102
1153, 753, 219,  99
1154, 669,  98, 220
1155, 718, 709, 181
1156, 670, 180, 582
1157, 726, 723, 671
1158, 671, 138, 580
1159, 730, 718, 672
1160, 672, 181, 575
1161, 732, 714, 673
1162, 673, 137, 574
1163, 735, 694, 674
1164, 674, 171, 571
1165, 731, 691, 675
1166, 675, 222, 567
1167, 737, 710, 676
1168, 676, 182, 569
1169, 777, 716, 186
1170, 677, 185, 593
1171, 780, 720, 143
1172, 678, 144, 591
1173, 679, 563, 609
1174, 679, 222, 634
1175, 739, 708, 680
1176, 680, 147, 566
1177, 681, 561, 610
1178, 781, 681, 147
1179, 695, 220,  98
1180, 682, 221, 554
1181, 742, 706, 683
1182, 683, 136, 560
1183, 745, 703, 684
1184, 684, 172, 557
1185, 740, 141, 736
1186, 685, 142, 655
1187, 775, 702, 184
1188, 686, 183, 555
1189, 792, 187, 773
1190, 687, 186, 659
1191, 776, 688, 142
1192, 688, 143, 660
1193, 785, 689, 131
1194, 689, 132, 662
1195, 784, 690, 177
1196, 690, 176, 661
1197, 770, 725, 707
1198, 691,  96, 634
1199, 795, 774, 145
1200, 692, 146, 553
1201, 783, 773, 693
1202, 693, 187, 650
1203, 765, 694, 735
1204, 694, 150, 641
1205, 771, 695,  98
1206, 771, 750, 695
1207, 769, 696, 749
1208, 697, 696, 154
1209, 768, 748, 697
1210, 768, 697, 154
1211, 769, 747, 698
1212, 769, 698, 154
1213, 768, 699, 746
1214, 699, 154, 698
1215, 760, 700, 168
1216, 760, 741, 700
1217, 767, 701, 740
1218, 776, 701, 163
1219, 767, 702, 163
1220, 767, 738, 702
1221, 758, 703, 745
1222, 735, 703, 151
1223, 758, 704, 151
1224, 758, 743, 704
1225, 759, 705, 157
1226, 759, 744, 705
1227, 759, 706, 742
1228, 732, 706, 157
1229, 770,  96, 691
1230, 770, 707,  96
1231, 760, 708, 739
1232, 781, 708, 168
1233, 766, 709, 160
1234, 766, 724, 709
1235, 761, 710, 737
1236, 730, 710, 161
1237, 761, 711, 161
1238, 761, 736, 711
1239, 765, 712, 150
1240, 765, 734, 712
1241, 762, 713, 158
1242, 762, 733, 713
1243, 762, 714, 732
1244, 726, 714, 158
1245, 766, 715, 159
1246, 766, 728, 715
1247, 772, 716, 165
1248, 772, 721, 716
1249, 772, 717, 720
1250, 778, 717, 165
1251, 763, 718, 730
1252, 718, 160, 709
1253, 763, 719, 160
1254, 763, 729, 719
1255, 720, 678, 143
1256, 772, 720, 164
1257, 779, 721, 164
1258, 721, 677, 716
1259, 764, 722, 159
1260, 764, 727, 722
1261, 764, 723, 726
1262, 723, 159, 715
1263, 724, 159, 722
1264, 724, 670, 709
1265, 794, 725,  97
1266, 725, 636, 707
1267, 726, 137, 714
1268, 764, 726, 158
1269, 727, 158, 713
1270, 727, 179, 645
1271, 728, 160, 719
1272, 728, 648, 715
1273, 729, 161, 711
1274, 729, 140, 642
1275, 730, 182, 710
1276, 763, 730, 161
1277, 750, 731, 221
1278, 770, 731,  97
1279, 732, 136, 706
1280, 762, 732, 157
1281, 733, 157, 705
1282, 733, 178, 638
1283, 734, 151, 704
1284, 734, 130, 639
1285, 735, 172, 703
1286, 765, 735, 151
1287, 740, 736, 162
1288, 736, 141, 637
1289, 738, 737, 183
1290, 761, 737, 162
1291, 738, 162, 737
1292, 738, 183, 686
1293, 787, 739, 146
1294, 760, 739, 167
1295, 740, 685, 141
1296, 767, 740, 162
1297, 783, 741, 167
1298, 741, 188, 635
1299, 786, 742, 135
1300, 759, 742, 156
1301, 785, 743, 152
1302, 743, 131, 633
1303, 784, 744, 156
1304, 744, 177, 631
1305, 782, 745, 173
1306, 758, 745, 152
1307, 746, 664, 132
1308, 768, 746, 153
1309, 788, 747, 155
1310, 747, 663, 698
1311, 789, 748, 153
1312, 748, 666, 697
1313, 749, 665, 176
1314, 769, 749, 155
1315, 750,  97, 731
1316, 750, 682, 695
1317, 751,  96, 707
1318, 751,  93, 647
1319, 752, 103, 667
1320, 752, 102, 387
1321, 796, 753,  99
1322, 753,  98, 669
1323, 788, 134, 747
1324, 754, 135, 551
1325, 789, 174, 748
1326, 755, 173, 548
1327, 779, 756, 185
1328, 756, 184, 546
1329, 778, 757, 144
1330, 757, 145, 543
1331, 758, 152, 743
1332, 758, 151, 703
1333, 759, 157, 706
1334, 759, 156, 744
1335, 760, 167, 741
1336, 760, 168, 708
1337, 761, 161, 710
1338, 761, 162, 736
1339, 762, 158, 714
1340, 762, 157, 733
1341, 763, 160, 718
1342, 763, 161, 729
1343, 764, 159, 723
1344, 764, 158, 727
1345, 765, 150, 694
1346, 765, 151, 734
1347, 766, 159, 724
1348, 766, 160, 728
1349, 767, 163, 701
1350, 767, 162, 738
1351, 768, 154, 699
1352, 768, 153, 748
1353, 769, 154, 696
1354, 769, 155, 747
1355, 770, 691, 731
1356, 770,  97, 725
1357, 802, 794, 771
1358, 771,  97, 750
1359, 772, 165, 717
1360, 772, 164, 721
1361, 799, 773, 783
1362, 792, 773, 166
1363, 799, 774, 166
1364, 799, 787, 774
1365, 775, 163, 702
1366, 775, 184, 756
1367, 776, 142, 701
1368, 800, 776, 163
1369, 777, 165, 716
1370, 777, 186, 687
1371, 778, 144, 717
1372, 801, 778, 165
1373, 779, 185, 721
1374, 800, 779, 164
1375, 780, 164, 720
1376, 780, 143, 688
1377, 781, 147, 708
1378, 781, 168, 541
1379, 782, 152, 745
1380, 782, 173, 755
1381, 783, 188, 741
1382, 799, 783, 167
1383, 784, 177, 744
1384, 798, 784, 156
1385, 785, 131, 743
1386, 797, 785, 152
1387, 786, 156, 742
1388, 786, 135, 754
1389, 787, 167, 739
1390, 787, 146, 692
1391, 788, 754, 134
1392, 798, 788, 155
1393, 789, 755, 174
1394, 797, 789, 153
1395, 790, 155, 749
1396, 790, 176, 690
1397, 791, 153, 746
1398, 791, 132, 689
1399, 792, 687, 187
1400, 801, 792, 166
1401, 793, 539, 634
1402, 793,  96, 751
1403, 794,  92, 725
1404, 794,  97, 771
1405, 795, 166, 774
1406, 795, 757, 778
1407, 802, 796,  91
1408, 796,  98, 753
1409, 797, 153, 791
1410, 797, 152, 782
1411, 798, 156, 786
1412, 798, 155, 790
1413, 799, 167, 787
1414, 799, 166, 773
1415, 800, 164, 780
1416, 800, 163, 775
1417, 801, 165, 777
1418, 801, 166, 795
1419, 802, 771,  98
1420, 803, 802,  91
1421, 803,  91, 668
1422, 803,  92, 794
1423, 804,  90, 625
1424, 804,  91, 796
*Nset, nset=_PickedSet2, internal, generate
   1,  804,    1
*Elset, elset=_PickedSet2, internal, generate
    1,  1424,     1
** Section: Section-1
*Solid Section, elset=_PickedSet2, material=Material-1
1.,
*End Part
**  
**
** ASSEMBLY
**
*Assembly, name=Assembly
**  
*Instance, name=plate-1, part=plate
*End Instance
**  
*Nset, nset=LeftEdgeSet, instance=plate-1
  46,  47,  48,  49,  50,  51,  52, 272, 273, 274, 275, 276
*Elset, elset=LeftEdgeSet, instance=plate-1
 216, 333, 405, 407, 408, 410, 722, 732, 737, 740, 747
*Elset, elset=_LoadSurface_S2, internal, instance=plate-1
 266, 269, 445, 447, 448, 724, 726, 734, 736, 755
*Elset, elset=_LoadSurface_S1, internal, instance=plate-1
 450,
*Surface, type=ELEMENT, name=LoadSurface
_LoadSurface_S2, S2
_LoadSurface_S1, S1
*End Assembly
** 
** MATERIALS
** 
*Material, name=Material-1
*Elastic
 2.9e+07, 0.3
** 
** BOUNDARY CONDITIONS
** 
** Name: BC-LeftEdge Type: Displacement/Rotation
*Boundary
LeftEdgeSet, 1, 1
LeftEdgeSet, 2, 2
** ----------------------------------------------------------------
** 
** STEP: Step-1
** 
*Step, name=Step-1, nlgeom=NO
*Static
1., 1., 1e-05, 1.
** 
** LOADS
** 
** Name: Load-1   Type: Pressure
*Dsload
LoadSurface, P, -8499.
** 
** OUTPUT REQUESTS
** 
*Restart, write, frequency=0
** 
** FIELD OUTPUT: F-Output-1
** 
*Output, field, variable=PRESELECT
** 
** HISTORY OUTPUT: H-Output-1
** 
*Output, history, variable=PRESELECT
*End Step
