*Heading
** Job name: plate_nohole__8999 Model name: PlateModel
** Generated by: Abaqus/CAE 2022
*Preprint, echo=NO, model=NO, history=NO, contact=NO
**
** PARTS
**
*Part, name=plate
*Node
      1,          30.,           5.
      2,   29.1044769,           5.
      3,   28.2089558,           5.
      4,   27.3134327,           5.
      5,   26.4179096,           5.
      6,   25.5223885,           5.
      7,   24.6268654,           5.
      8,   23.7313442,           5.
      9,   22.8358212,           5.
     10,   21.9402981,           5.
     11,   21.0447769,           5.
     12,   20.1492538,           5.
     13,   19.2537308,           5.
     14,   18.3582096,           5.
     15,   17.4626865,           5.
     16,   16.5671635,           5.
     17,   15.6716413,           5.
     18,   14.7761192,           5.
     19,   13.8805971,           5.
     20,    12.985075,           5.
     21,   12.0895519,           5.
     22,   11.1940298,           5.
     23,   10.2985077,           5.
     24,   9.40298462,           5.
     25,    8.5074625,           5.
     26,   7.61194038,           5.
     27,   6.71641779,           5.
     28,   5.82089567,           5.
     29,   4.92537308,           5.
     30,   4.02985096,           5.
     31,   3.13432837,           5.
     32,   2.23880601,           5.
     33,   1.34328353,           5.
     34,  0.447761208,           5.
     35, -0.447761208,           5.
     36,  -1.34328353,           5.
     37,  -2.23880601,           5.
     38,  -3.13432837,           5.
     39,  -4.02985096,           5.
     40,  -4.92537308,           5.
     41,  -5.82089567,           5.
     42,  -6.71641779,           5.
     43,  -7.61194038,           5.
     44,   -8.5074625,           5.
     45,  -9.40298462,           5.
     46,  -10.2985077,           5.
     47,  -11.1940298,           5.
     48,  -12.0895519,           5.
     49,   -12.985075,           5.
     50,  -13.8805971,           5.
     51,  -14.7761192,           5.
     52,  -15.6716413,           5.
     53,  -16.5671635,           5.
     54,  -17.4626865,           5.
     55,  -18.3582096,           5.
     56,  -19.2537308,           5.
     57,  -20.1492538,           5.
     58,  -21.0447769,           5.
     59,  -21.9402981,           5.
     60,  -22.8358212,           5.
     61,  -23.7313442,           5.
     62,  -24.6268654,           5.
     63,  -25.5223885,           5.
     64,  -26.4179096,           5.
     65,  -27.3134327,           5.
     66,  -28.2089558,           5.
     67,  -29.1044769,           5.
     68,         -30.,           5.
     69,          30.,     4.090909
     70,   29.1044769,     4.090909
     71,   28.2089558,     4.090909
     72,   27.3134327,     4.090909
     73,   26.4179096,     4.090909
     74,   25.5223885,     4.090909
     75,   24.6268654,     4.090909
     76,   23.7313442,     4.090909
     77,   22.8358212,     4.090909
     78,   21.9402981,     4.090909
     79,   21.0447769,     4.090909
     80,   20.1492538,     4.090909
     81,   19.2537308,     4.090909
     82,   18.3582096,     4.090909
     83,   17.4626865,     4.090909
     84,   16.5671635,     4.090909
     85,   15.6716413,     4.090909
     86,   14.7761192,     4.090909
     87,   13.8805971,     4.090909
     88,    12.985075,     4.090909
     89,   12.0895519,     4.090909
     90,   11.1940298,     4.090909
     91,   10.2985077,     4.090909
     92,   9.40298462,     4.090909
     93,    8.5074625,     4.090909
     94,   7.61194038,     4.090909
     95,   6.71641779,     4.090909
     96,   5.82089567,     4.090909
     97,   4.92537308,     4.090909
     98,   4.02985096,     4.090909
     99,   3.13432837,     4.090909
    100,   2.23880601,     4.090909
    101,   1.34328353,     4.090909
    102,  0.447761208,     4.090909
    103, -0.447761208,     4.090909
    104,  -1.34328353,     4.090909
    105,  -2.23880601,     4.090909
    106,  -3.13432837,     4.090909
    107,  -4.02985096,     4.090909
    108,  -4.92537308,     4.090909
    109,  -5.82089567,     4.090909
    110,  -6.71641779,     4.090909
    111,  -7.61194038,     4.090909
    112,   -8.5074625,     4.090909
    113,  -9.40298462,     4.090909
    114,  -10.2985077,     4.090909
    115,  -11.1940298,     4.090909
    116,  -12.0895519,     4.090909
    117,   -12.985075,     4.090909
    118,  -13.8805971,     4.090909
    119,  -14.7761192,     4.090909
    120,  -15.6716413,     4.090909
    121,  -16.5671635,     4.090909
    122,  -17.4626865,     4.090909
    123,  -18.3582096,     4.090909
    124,  -19.2537308,     4.090909
    125,  -20.1492538,     4.090909
    126,  -21.0447769,     4.090909
    127,  -21.9402981,     4.090909
    128,  -22.8358212,     4.090909
    129,  -23.7313442,     4.090909
    130,  -24.6268654,     4.090909
    131,  -25.5223885,     4.090909
    132,  -26.4179096,     4.090909
    133,  -27.3134327,     4.090909
    134,  -28.2089558,     4.090909
    135,  -29.1044769,     4.090909
    136,         -30.,     4.090909
    137,          30.,   3.18181825
    138,   29.1044769,   3.18181825
    139,   28.2089558,   3.18181825
    140,   27.3134327,   3.18181825
    141,   26.4179096,   3.18181825
    142,   25.5223885,   3.18181825
    143,   24.6268654,   3.18181825
    144,   23.7313442,   3.18181825
    145,   22.8358212,   3.18181825
    146,   21.9402981,   3.18181825
    147,   21.0447769,   3.18181825
    148,   20.1492538,   3.18181825
    149,   19.2537308,   3.18181825
    150,   18.3582096,   3.18181825
    151,   17.4626865,   3.18181825
    152,   16.5671635,   3.18181825
    153,   15.6716413,   3.18181825
    154,   14.7761192,   3.18181825
    155,   13.8805971,   3.18181825
    156,    12.985075,   3.18181825
    157,   12.0895519,   3.18181825
    158,   11.1940298,   3.18181825
    159,   10.2985077,   3.18181825
    160,   9.40298462,   3.18181825
    161,    8.5074625,   3.18181825
    162,   7.61194038,   3.18181825
    163,   6.71641779,   3.18181825
    164,   5.82089567,   3.18181825
    165,   4.92537308,   3.18181825
    166,   4.02985096,   3.18181825
    167,   3.13432837,   3.18181825
    168,   2.23880601,   3.18181825
    169,   1.34328353,   3.18181825
    170,  0.447761208,   3.18181825
    171, -0.447761208,   3.18181825
    172,  -1.34328353,   3.18181825
    173,  -2.23880601,   3.18181825
    174,  -3.13432837,   3.18181825
    175,  -4.02985096,   3.18181825
    176,  -4.92537308,   3.18181825
    177,  -5.82089567,   3.18181825
    178,  -6.71641779,   3.18181825
    179,  -7.61194038,   3.18181825
    180,   -8.5074625,   3.18181825
    181,  -9.40298462,   3.18181825
    182,  -10.2985077,   3.18181825
    183,  -11.1940298,   3.18181825
    184,  -12.0895519,   3.18181825
    185,   -12.985075,   3.18181825
    186,  -13.8805971,   3.18181825
    187,  -14.7761192,   3.18181825
    188,  -15.6716413,   3.18181825
    189,  -16.5671635,   3.18181825
    190,  -17.4626865,   3.18181825
    191,  -18.3582096,   3.18181825
    192,  -19.2537308,   3.18181825
    193,  -20.1492538,   3.18181825
    194,  -21.0447769,   3.18181825
    195,  -21.9402981,   3.18181825
    196,  -22.8358212,   3.18181825
    197,  -23.7313442,   3.18181825
    198,  -24.6268654,   3.18181825
    199,  -25.5223885,   3.18181825
    200,  -26.4179096,   3.18181825
    201,  -27.3134327,   3.18181825
    202,  -28.2089558,   3.18181825
    203,  -29.1044769,   3.18181825
    204,         -30.,   3.18181825
    205,          30.,   2.27272725
    206,   29.1044769,   2.27272725
    207,   28.2089558,   2.27272725
    208,   27.3134327,   2.27272725
    209,   26.4179096,   2.27272725
    210,   25.5223885,   2.27272725
    211,   24.6268654,   2.27272725
    212,   23.7313442,   2.27272725
    213,   22.8358212,   2.27272725
    214,   21.9402981,   2.27272725
    215,   21.0447769,   2.27272725
    216,   20.1492538,   2.27272725
    217,   19.2537308,   2.27272725
    218,   18.3582096,   2.27272725
    219,   17.4626865,   2.27272725
    220,   16.5671635,   2.27272725
    221,   15.6716413,   2.27272725
    222,   14.7761192,   2.27272725
    223,   13.8805971,   2.27272725
    224,    12.985075,   2.27272725
    225,   12.0895519,   2.27272725
    226,   11.1940298,   2.27272725
    227,   10.2985077,   2.27272725
    228,   9.40298462,   2.27272725
    229,    8.5074625,   2.27272725
    230,   7.61194038,   2.27272725
    231,   6.71641779,   2.27272725
    232,   5.82089567,   2.27272725
    233,   4.92537308,   2.27272725
    234,   4.02985096,   2.27272725
    235,   3.13432837,   2.27272725
    236,   2.23880601,   2.27272725
    237,   1.34328353,   2.27272725
    238,  0.447761208,   2.27272725
    239, -0.447761208,   2.27272725
    240,  -1.34328353,   2.27272725
    241,  -2.23880601,   2.27272725
    242,  -3.13432837,   2.27272725
    243,  -4.02985096,   2.27272725
    244,  -4.92537308,   2.27272725
    245,  -5.82089567,   2.27272725
    246,  -6.71641779,   2.27272725
    247,  -7.61194038,   2.27272725
    248,   -8.5074625,   2.27272725
    249,  -9.40298462,   2.27272725
    250,  -10.2985077,   2.27272725
    251,  -11.1940298,   2.27272725
    252,  -12.0895519,   2.27272725
    253,   -12.985075,   2.27272725
    254,  -13.8805971,   2.27272725
    255,  -14.7761192,   2.27272725
    256,  -15.6716413,   2.27272725
    257,  -16.5671635,   2.27272725
    258,  -17.4626865,   2.27272725
    259,  -18.3582096,   2.27272725
    260,  -19.2537308,   2.27272725
    261,  -20.1492538,   2.27272725
    262,  -21.0447769,   2.27272725
    263,  -21.9402981,   2.27272725
    264,  -22.8358212,   2.27272725
    265,  -23.7313442,   2.27272725
    266,  -24.6268654,   2.27272725
    267,  -25.5223885,   2.27272725
    268,  -26.4179096,   2.27272725
    269,  -27.3134327,   2.27272725
    270,  -28.2089558,   2.27272725
    271,  -29.1044769,   2.27272725
    272,         -30.,   2.27272725
    273,          30.,   1.36363637
    274,   29.1044769,   1.36363637
    275,   28.2089558,   1.36363637
    276,   27.3134327,   1.36363637
    277,   26.4179096,   1.36363637
    278,   25.5223885,   1.36363637
    279,   24.6268654,   1.36363637
    280,   23.7313442,   1.36363637
    281,   22.8358212,   1.36363637
    282,   21.9402981,   1.36363637
    283,   21.0447769,   1.36363637
    284,   20.1492538,   1.36363637
    285,   19.2537308,   1.36363637
    286,   18.3582096,   1.36363637
    287,   17.4626865,   1.36363637
    288,   16.5671635,   1.36363637
    289,   15.6716413,   1.36363637
    290,   14.7761192,   1.36363637
    291,   13.8805971,   1.36363637
    292,    12.985075,   1.36363637
    293,   12.0895519,   1.36363637
    294,   11.1940298,   1.36363637
    295,   10.2985077,   1.36363637
    296,   9.40298462,   1.36363637
    297,    8.5074625,   1.36363637
    298,   7.61194038,   1.36363637
    299,   6.71641779,   1.36363637
    300,   5.82089567,   1.36363637
    301,   4.92537308,   1.36363637
    302,   4.02985096,   1.36363637
    303,   3.13432837,   1.36363637
    304,   2.23880601,   1.36363637
    305,   1.34328353,   1.36363637
    306,  0.447761208,   1.36363637
    307, -0.447761208,   1.36363637
    308,  -1.34328353,   1.36363637
    309,  -2.23880601,   1.36363637
    310,  -3.13432837,   1.36363637
    311,  -4.02985096,   1.36363637
    312,  -4.92537308,   1.36363637
    313,  -5.82089567,   1.36363637
    314,  -6.71641779,   1.36363637
    315,  -7.61194038,   1.36363637
    316,   -8.5074625,   1.36363637
    317,  -9.40298462,   1.36363637
    318,  -10.2985077,   1.36363637
    319,  -11.1940298,   1.36363637
    320,  -12.0895519,   1.36363637
    321,   -12.985075,   1.36363637
    322,  -13.8805971,   1.36363637
    323,  -14.7761192,   1.36363637
    324,  -15.6716413,   1.36363637
    325,  -16.5671635,   1.36363637
    326,  -17.4626865,   1.36363637
    327,  -18.3582096,   1.36363637
    328,  -19.2537308,   1.36363637
    329,  -20.1492538,   1.36363637
    330,  -21.0447769,   1.36363637
    331,  -21.9402981,   1.36363637
    332,  -22.8358212,   1.36363637
    333,  -23.7313442,   1.36363637
    334,  -24.6268654,   1.36363637
    335,  -25.5223885,   1.36363637
    336,  -26.4179096,   1.36363637
    337,  -27.3134327,   1.36363637
    338,  -28.2089558,   1.36363637
    339,  -29.1044769,   1.36363637
    340,         -30.,   1.36363637
    341,          30.,  0.454545468
    342,   29.1044769,  0.454545468
    343,   28.2089558,  0.454545468
    344,   27.3134327,  0.454545468
    345,   26.4179096,  0.454545468
    346,   25.5223885,  0.454545468
    347,   24.6268654,  0.454545468
    348,   23.7313442,  0.454545468
    349,   22.8358212,  0.454545468
    350,   21.9402981,  0.454545468
    351,   21.0447769,  0.454545468
    352,   20.1492538,  0.454545468
    353,   19.2537308,  0.454545468
    354,   18.3582096,  0.454545468
    355,   17.4626865,  0.454545468
    356,   16.5671635,  0.454545468
    357,   15.6716413,  0.454545468
    358,   14.7761192,  0.454545468
    359,   13.8805971,  0.454545468
    360,    12.985075,  0.454545468
    361,   12.0895519,  0.454545468
    362,   11.1940298,  0.454545468
    363,   10.2985077,  0.454545468
    364,   9.40298462,  0.454545468
    365,    8.5074625,  0.454545468
    366,   7.61194038,  0.454545468
    367,   6.71641779,  0.454545468
    368,   5.82089567,  0.454545468
    369,   4.92537308,  0.454545468
    370,   4.02985096,  0.454545468
    371,   3.13432837,  0.454545468
    372,   2.23880601,  0.454545468
    373,   1.34328353,  0.454545468
    374,  0.447761208,  0.454545468
    375, -0.447761208,  0.454545468
    376,  -1.34328353,  0.454545468
    377,  -2.23880601,  0.454545468
    378,  -3.13432837,  0.454545468
    379,  -4.02985096,  0.454545468
    380,  -4.92537308,  0.454545468
    381,  -5.82089567,  0.454545468
    382,  -6.71641779,  0.454545468
    383,  -7.61194038,  0.454545468
    384,   -8.5074625,  0.454545468
    385,  -9.40298462,  0.454545468
    386,  -10.2985077,  0.454545468
    387,  -11.1940298,  0.454545468
    388,  -12.0895519,  0.454545468
    389,   -12.985075,  0.454545468
    390,  -13.8805971,  0.454545468
    391,  -14.7761192,  0.454545468
    392,  -15.6716413,  0.454545468
    393,  -16.5671635,  0.454545468
    394,  -17.4626865,  0.454545468
    395,  -18.3582096,  0.454545468
    396,  -19.2537308,  0.454545468
    397,  -20.1492538,  0.454545468
    398,  -21.0447769,  0.454545468
    399,  -21.9402981,  0.454545468
    400,  -22.8358212,  0.454545468
    401,  -23.7313442,  0.454545468
    402,  -24.6268654,  0.454545468
    403,  -25.5223885,  0.454545468
    404,  -26.4179096,  0.454545468
    405,  -27.3134327,  0.454545468
    406,  -28.2089558,  0.454545468
    407,  -29.1044769,  0.454545468
    408,         -30.,  0.454545468
    409,          30., -0.454545468
    410,   29.1044769, -0.454545468
    411,   28.2089558, -0.454545468
    412,   27.3134327, -0.454545468
    413,   26.4179096, -0.454545468
    414,   25.5223885, -0.454545468
    415,   24.6268654, -0.454545468
    416,   23.7313442, -0.454545468
    417,   22.8358212, -0.454545468
    418,   21.9402981, -0.454545468
    419,   21.0447769, -0.454545468
    420,   20.1492538, -0.454545468
    421,   19.2537308, -0.454545468
    422,   18.3582096, -0.454545468
    423,   17.4626865, -0.454545468
    424,   16.5671635, -0.454545468
    425,   15.6716413, -0.454545468
    426,   14.7761192, -0.454545468
    427,   13.8805971, -0.454545468
    428,    12.985075, -0.454545468
    429,   12.0895519, -0.454545468
    430,   11.1940298, -0.454545468
    431,   10.2985077, -0.454545468
    432,   9.40298462, -0.454545468
    433,    8.5074625, -0.454545468
    434,   7.61194038, -0.454545468
    435,   6.71641779, -0.454545468
    436,   5.82089567, -0.454545468
    437,   4.92537308, -0.454545468
    438,   4.02985096, -0.454545468
    439,   3.13432837, -0.454545468
    440,   2.23880601, -0.454545468
    441,   1.34328353, -0.454545468
    442,  0.447761208, -0.454545468
    443, -0.447761208, -0.454545468
    444,  -1.34328353, -0.454545468
    445,  -2.23880601, -0.454545468
    446,  -3.13432837, -0.454545468
    447,  -4.02985096, -0.454545468
    448,  -4.92537308, -0.454545468
    449,  -5.82089567, -0.454545468
    450,  -6.71641779, -0.454545468
    451,  -7.61194038, -0.454545468
    452,   -8.5074625, -0.454545468
    453,  -9.40298462, -0.454545468
    454,  -10.2985077, -0.454545468
    455,  -11.1940298, -0.454545468
    456,  -12.0895519, -0.454545468
    457,   -12.985075, -0.454545468
    458,  -13.8805971, -0.454545468
    459,  -14.7761192, -0.454545468
    460,  -15.6716413, -0.454545468
    461,  -16.5671635, -0.454545468
    462,  -17.4626865, -0.454545468
    463,  -18.3582096, -0.454545468
    464,  -19.2537308, -0.454545468
    465,  -20.1492538, -0.454545468
    466,  -21.0447769, -0.454545468
    467,  -21.9402981, -0.454545468
    468,  -22.8358212, -0.454545468
    469,  -23.7313442, -0.454545468
    470,  -24.6268654, -0.454545468
    471,  -25.5223885, -0.454545468
    472,  -26.4179096, -0.454545468
    473,  -27.3134327, -0.454545468
    474,  -28.2089558, -0.454545468
    475,  -29.1044769, -0.454545468
    476,         -30., -0.454545468
    477,          30.,  -1.36363637
    478,   29.1044769,  -1.36363637
    479,   28.2089558,  -1.36363637
    480,   27.3134327,  -1.36363637
    481,   26.4179096,  -1.36363637
    482,   25.5223885,  -1.36363637
    483,   24.6268654,  -1.36363637
    484,   23.7313442,  -1.36363637
    485,   22.8358212,  -1.36363637
    486,   21.9402981,  -1.36363637
    487,   21.0447769,  -1.36363637
    488,   20.1492538,  -1.36363637
    489,   19.2537308,  -1.36363637
    490,   18.3582096,  -1.36363637
    491,   17.4626865,  -1.36363637
    492,   16.5671635,  -1.36363637
    493,   15.6716413,  -1.36363637
    494,   14.7761192,  -1.36363637
    495,   13.8805971,  -1.36363637
    496,    12.985075,  -1.36363637
    497,   12.0895519,  -1.36363637
    498,   11.1940298,  -1.36363637
    499,   10.2985077,  -1.36363637
    500,   9.40298462,  -1.36363637
    501,    8.5074625,  -1.36363637
    502,   7.61194038,  -1.36363637
    503,   6.71641779,  -1.36363637
    504,   5.82089567,  -1.36363637
    505,   4.92537308,  -1.36363637
    506,   4.02985096,  -1.36363637
    507,   3.13432837,  -1.36363637
    508,   2.23880601,  -1.36363637
    509,   1.34328353,  -1.36363637
    510,  0.447761208,  -1.36363637
    511, -0.447761208,  -1.36363637
    512,  -1.34328353,  -1.36363637
    513,  -2.23880601,  -1.36363637
    514,  -3.13432837,  -1.36363637
    515,  -4.02985096,  -1.36363637
    516,  -4.92537308,  -1.36363637
    517,  -5.82089567,  -1.36363637
    518,  -6.71641779,  -1.36363637
    519,  -7.61194038,  -1.36363637
    520,   -8.5074625,  -1.36363637
    521,  -9.40298462,  -1.36363637
    522,  -10.2985077,  -1.36363637
    523,  -11.1940298,  -1.36363637
    524,  -12.0895519,  -1.36363637
    525,   -12.985075,  -1.36363637
    526,  -13.8805971,  -1.36363637
    527,  -14.7761192,  -1.36363637
    528,  -15.6716413,  -1.36363637
    529,  -16.5671635,  -1.36363637
    530,  -17.4626865,  -1.36363637
    531,  -18.3582096,  -1.36363637
    532,  -19.2537308,  -1.36363637
    533,  -20.1492538,  -1.36363637
    534,  -21.0447769,  -1.36363637
    535,  -21.9402981,  -1.36363637
    536,  -22.8358212,  -1.36363637
    537,  -23.7313442,  -1.36363637
    538,  -24.6268654,  -1.36363637
    539,  -25.5223885,  -1.36363637
    540,  -26.4179096,  -1.36363637
    541,  -27.3134327,  -1.36363637
    542,  -28.2089558,  -1.36363637
    543,  -29.1044769,  -1.36363637
    544,         -30.,  -1.36363637
    545,          30.,  -2.27272725
    546,   29.1044769,  -2.27272725
    547,   28.2089558,  -2.27272725
    548,   27.3134327,  -2.27272725
    549,   26.4179096,  -2.27272725
    550,   25.5223885,  -2.27272725
    551,   24.6268654,  -2.27272725
    552,   23.7313442,  -2.27272725
    553,   22.8358212,  -2.27272725
    554,   21.9402981,  -2.27272725
    555,   21.0447769,  -2.27272725
    556,   20.1492538,  -2.27272725
    557,   19.2537308,  -2.27272725
    558,   18.3582096,  -2.27272725
    559,   17.4626865,  -2.27272725
    560,   16.5671635,  -2.27272725
    561,   15.6716413,  -2.27272725
    562,   14.7761192,  -2.27272725
    563,   13.8805971,  -2.27272725
    564,    12.985075,  -2.27272725
    565,   12.0895519,  -2.27272725
    566,   11.1940298,  -2.27272725
    567,   10.2985077,  -2.27272725
    568,   9.40298462,  -2.27272725
    569,    8.5074625,  -2.27272725
    570,   7.61194038,  -2.27272725
    571,   6.71641779,  -2.27272725
    572,   5.82089567,  -2.27272725
    573,   4.92537308,  -2.27272725
    574,   4.02985096,  -2.27272725
    575,   3.13432837,  -2.27272725
    576,   2.23880601,  -2.27272725
    577,   1.34328353,  -2.27272725
    578,  0.447761208,  -2.27272725
    579, -0.447761208,  -2.27272725
    580,  -1.34328353,  -2.27272725
    581,  -2.23880601,  -2.27272725
    582,  -3.13432837,  -2.27272725
    583,  -4.02985096,  -2.27272725
    584,  -4.92537308,  -2.27272725
    585,  -5.82089567,  -2.27272725
    586,  -6.71641779,  -2.27272725
    587,  -7.61194038,  -2.27272725
    588,   -8.5074625,  -2.27272725
    589,  -9.40298462,  -2.27272725
    590,  -10.2985077,  -2.27272725
    591,  -11.1940298,  -2.27272725
    592,  -12.0895519,  -2.27272725
    593,   -12.985075,  -2.27272725
    594,  -13.8805971,  -2.27272725
    595,  -14.7761192,  -2.27272725
    596,  -15.6716413,  -2.27272725
    597,  -16.5671635,  -2.27272725
    598,  -17.4626865,  -2.27272725
    599,  -18.3582096,  -2.27272725
    600,  -19.2537308,  -2.27272725
    601,  -20.1492538,  -2.27272725
    602,  -21.0447769,  -2.27272725
    603,  -21.9402981,  -2.27272725
    604,  -22.8358212,  -2.27272725
    605,  -23.7313442,  -2.27272725
    606,  -24.6268654,  -2.27272725
    607,  -25.5223885,  -2.27272725
    608,  -26.4179096,  -2.27272725
    609,  -27.3134327,  -2.27272725
    610,  -28.2089558,  -2.27272725
    611,  -29.1044769,  -2.27272725
    612,         -30.,  -2.27272725
    613,          30.,  -3.18181825
    614,   29.1044769,  -3.18181825
    615,   28.2089558,  -3.18181825
    616,   27.3134327,  -3.18181825
    617,   26.4179096,  -3.18181825
    618,   25.5223885,  -3.18181825
    619,   24.6268654,  -3.18181825
    620,   23.7313442,  -3.18181825
    621,   22.8358212,  -3.18181825
    622,   21.9402981,  -3.18181825
    623,   21.0447769,  -3.18181825
    624,   20.1492538,  -3.18181825
    625,   19.2537308,  -3.18181825
    626,   18.3582096,  -3.18181825
    627,   17.4626865,  -3.18181825
    628,   16.5671635,  -3.18181825
    629,   15.6716413,  -3.18181825
    630,   14.7761192,  -3.18181825
    631,   13.8805971,  -3.18181825
    632,    12.985075,  -3.18181825
    633,   12.0895519,  -3.18181825
    634,   11.1940298,  -3.18181825
    635,   10.2985077,  -3.18181825
    636,   9.40298462,  -3.18181825
    637,    8.5074625,  -3.18181825
    638,   7.61194038,  -3.18181825
    639,   6.71641779,  -3.18181825
    640,   5.82089567,  -3.18181825
    641,   4.92537308,  -3.18181825
    642,   4.02985096,  -3.18181825
    643,   3.13432837,  -3.18181825
    644,   2.23880601,  -3.18181825
    645,   1.34328353,  -3.18181825
    646,  0.447761208,  -3.18181825
    647, -0.447761208,  -3.18181825
    648,  -1.34328353,  -3.18181825
    649,  -2.23880601,  -3.18181825
    650,  -3.13432837,  -3.18181825
    651,  -4.02985096,  -3.18181825
    652,  -4.92537308,  -3.18181825
    653,  -5.82089567,  -3.18181825
    654,  -6.71641779,  -3.18181825
    655,  -7.61194038,  -3.18181825
    656,   -8.5074625,  -3.18181825
    657,  -9.40298462,  -3.18181825
    658,  -10.2985077,  -3.18181825
    659,  -11.1940298,  -3.18181825
    660,  -12.0895519,  -3.18181825
    661,   -12.985075,  -3.18181825
    662,  -13.8805971,  -3.18181825
    663,  -14.7761192,  -3.18181825
    664,  -15.6716413,  -3.18181825
    665,  -16.5671635,  -3.18181825
    666,  -17.4626865,  -3.18181825
    667,  -18.3582096,  -3.18181825
    668,  -19.2537308,  -3.18181825
    669,  -20.1492538,  -3.18181825
    670,  -21.0447769,  -3.18181825
    671,  -21.9402981,  -3.18181825
    672,  -22.8358212,  -3.18181825
    673,  -23.7313442,  -3.18181825
    674,  -24.6268654,  -3.18181825
    675,  -25.5223885,  -3.18181825
    676,  -26.4179096,  -3.18181825
    677,  -27.3134327,  -3.18181825
    678,  -28.2089558,  -3.18181825
    679,  -29.1044769,  -3.18181825
    680,         -30.,  -3.18181825
    681,          30.,    -4.090909
    682,   29.1044769,    -4.090909
    683,   28.2089558,    -4.090909
    684,   27.3134327,    -4.090909
    685,   26.4179096,    -4.090909
    686,   25.5223885,    -4.090909
    687,   24.6268654,    -4.090909
    688,   23.7313442,    -4.090909
    689,   22.8358212,    -4.090909
    690,   21.9402981,    -4.090909
    691,   21.0447769,    -4.090909
    692,   20.1492538,    -4.090909
    693,   19.2537308,    -4.090909
    694,   18.3582096,    -4.090909
    695,   17.4626865,    -4.090909
    696,   16.5671635,    -4.090909
    697,   15.6716413,    -4.090909
    698,   14.7761192,    -4.090909
    699,   13.8805971,    -4.090909
    700,    12.985075,    -4.090909
    701,   12.0895519,    -4.090909
    702,   11.1940298,    -4.090909
    703,   10.2985077,    -4.090909
    704,   9.40298462,    -4.090909
    705,    8.5074625,    -4.090909
    706,   7.61194038,    -4.090909
    707,   6.71641779,    -4.090909
    708,   5.82089567,    -4.090909
    709,   4.92537308,    -4.090909
    710,   4.02985096,    -4.090909
    711,   3.13432837,    -4.090909
    712,   2.23880601,    -4.090909
    713,   1.34328353,    -4.090909
    714,  0.447761208,    -4.090909
    715, -0.447761208,    -4.090909
    716,  -1.34328353,    -4.090909
    717,  -2.23880601,    -4.090909
    718,  -3.13432837,    -4.090909
    719,  -4.02985096,    -4.090909
    720,  -4.92537308,    -4.090909
    721,  -5.82089567,    -4.090909
    722,  -6.71641779,    -4.090909
    723,  -7.61194038,    -4.090909
    724,   -8.5074625,    -4.090909
    725,  -9.40298462,    -4.090909
    726,  -10.2985077,    -4.090909
    727,  -11.1940298,    -4.090909
    728,  -12.0895519,    -4.090909
    729,   -12.985075,    -4.090909
    730,  -13.8805971,    -4.090909
    731,  -14.7761192,    -4.090909
    732,  -15.6716413,    -4.090909
    733,  -16.5671635,    -4.090909
    734,  -17.4626865,    -4.090909
    735,  -18.3582096,    -4.090909
    736,  -19.2537308,    -4.090909
    737,  -20.1492538,    -4.090909
    738,  -21.0447769,    -4.090909
    739,  -21.9402981,    -4.090909
    740,  -22.8358212,    -4.090909
    741,  -23.7313442,    -4.090909
    742,  -24.6268654,    -4.090909
    743,  -25.5223885,    -4.090909
    744,  -26.4179096,    -4.090909
    745,  -27.3134327,    -4.090909
    746,  -28.2089558,    -4.090909
    747,  -29.1044769,    -4.090909
    748,         -30.,    -4.090909
    749,          30.,          -5.
    750,   29.1044769,          -5.
    751,   28.2089558,          -5.
    752,   27.3134327,          -5.
    753,   26.4179096,          -5.
    754,   25.5223885,          -5.
    755,   24.6268654,          -5.
    756,   23.7313442,          -5.
    757,   22.8358212,          -5.
    758,   21.9402981,          -5.
    759,   21.0447769,          -5.
    760,   20.1492538,          -5.
    761,   19.2537308,          -5.
    762,   18.3582096,          -5.
    763,   17.4626865,          -5.
    764,   16.5671635,          -5.
    765,   15.6716413,          -5.
    766,   14.7761192,          -5.
    767,   13.8805971,          -5.
    768,    12.985075,          -5.
    769,   12.0895519,          -5.
    770,   11.1940298,          -5.
    771,   10.2985077,          -5.
    772,   9.40298462,          -5.
    773,    8.5074625,          -5.
    774,   7.61194038,          -5.
    775,   6.71641779,          -5.
    776,   5.82089567,          -5.
    777,   4.92537308,          -5.
    778,   4.02985096,          -5.
    779,   3.13432837,          -5.
    780,   2.23880601,          -5.
    781,   1.34328353,          -5.
    782,  0.447761208,          -5.
    783, -0.447761208,          -5.
    784,  -1.34328353,          -5.
    785,  -2.23880601,          -5.
    786,  -3.13432837,          -5.
    787,  -4.02985096,          -5.
    788,  -4.92537308,          -5.
    789,  -5.82089567,          -5.
    790,  -6.71641779,          -5.
    791,  -7.61194038,          -5.
    792,   -8.5074625,          -5.
    793,  -9.40298462,          -5.
    794,  -10.2985077,          -5.
    795,  -11.1940298,          -5.
    796,  -12.0895519,          -5.
    797,   -12.985075,          -5.
    798,  -13.8805971,          -5.
    799,  -14.7761192,          -5.
    800,  -15.6716413,          -5.
    801,  -16.5671635,          -5.
    802,  -17.4626865,          -5.
    803,  -18.3582096,          -5.
    804,  -19.2537308,          -5.
    805,  -20.1492538,          -5.
    806,  -21.0447769,          -5.
    807,  -21.9402981,          -5.
    808,  -22.8358212,          -5.
    809,  -23.7313442,          -5.
    810,  -24.6268654,          -5.
    811,  -25.5223885,          -5.
    812,  -26.4179096,          -5.
    813,  -27.3134327,          -5.
    814,  -28.2089558,          -5.
    815,  -29.1044769,          -5.
    816,         -30.,          -5.
*Element, type=CPS3
   1,   1,   2,  70
   2,  70,  69,   1
   3,   2,   3,  71
   4,  71,  70,   2
   5,   3,   4,  72
   6,  72,  71,   3
   7,   4,   5,  73
   8,  73,  72,   4
   9,   5,   6,  74
  10,  74,  73,   5
  11,   6,   7,  75
  12,  75,  74,   6
  13,   7,   8,  76
  14,  76,  75,   7
  15,   8,   9,  77
  16,  77,  76,   8
  17,   9,  10,  78
  18,  78,  77,   9
  19,  10,  11,  79
  20,  79,  78,  10
  21,  11,  12,  80
  22,  80,  79,  11
  23,  12,  13,  81
  24,  81,  80,  12
  25,  13,  14,  82
  26,  82,  81,  13
  27,  14,  15,  83
  28,  83,  82,  14
  29,  15,  16,  84
  30,  84,  83,  15
  31,  16,  17,  85
  32,  85,  84,  16
  33,  17,  18,  86
  34,  86,  85,  17
  35,  18,  19,  87
  36,  87,  86,  18
  37,  19,  20,  88
  38,  88,  87,  19
  39,  20,  21,  89
  40,  89,  88,  20
  41,  21,  22,  90
  42,  90,  89,  21
  43,  22,  23,  91
  44,  91,  90,  22
  45,  23,  24,  92
  46,  92,  91,  23
  47,  24,  25,  93
  48,  93,  92,  24
  49,  25,  26,  94
  50,  94,  93,  25
  51,  26,  27,  95
  52,  95,  94,  26
  53,  27,  28,  96
  54,  96,  95,  27
  55,  28,  29,  97
  56,  97,  96,  28
  57,  29,  30,  98
  58,  98,  97,  29
  59,  30,  31,  99
  60,  99,  98,  30
  61,  31,  32, 100
  62, 100,  99,  31
  63,  32,  33, 101
  64, 101, 100,  32
  65,  33,  34, 102
  66, 102, 101,  33
  67,  34,  35, 103
  68, 103, 102,  34
  69,  35,  36, 104
  70, 104, 103,  35
  71,  36,  37, 105
  72, 105, 104,  36
  73,  37,  38, 106
  74, 106, 105,  37
  75,  38,  39, 107
  76, 107, 106,  38
  77,  39,  40, 108
  78, 108, 107,  39
  79,  40,  41, 109
  80, 109, 108,  40
  81,  41,  42, 110
  82, 110, 109,  41
  83,  42,  43, 111
  84, 111, 110,  42
  85,  43,  44, 112
  86, 112, 111,  43
  87,  44,  45, 113
  88, 113, 112,  44
  89,  45,  46, 114
  90, 114, 113,  45
  91,  46,  47, 115
  92, 115, 114,  46
  93,  47,  48, 116
  94, 116, 115,  47
  95,  48,  49, 117
  96, 117, 116,  48
  97,  49,  50, 118
  98, 118, 117,  49
  99,  50,  51, 119
 100, 119, 118,  50
 101,  51,  52, 120
 102, 120, 119,  51
 103,  52,  53, 121
 104, 121, 120,  52
 105,  53,  54, 122
 106, 122, 121,  53
 107,  54,  55, 123
 108, 123, 122,  54
 109,  55,  56, 124
 110, 124, 123,  55
 111,  56,  57, 125
 112, 125, 124,  56
 113,  57,  58, 126
 114, 126, 125,  57
 115,  58,  59, 127
 116, 127, 126,  58
 117,  59,  60, 128
 118, 128, 127,  59
 119,  60,  61, 129
 120, 129, 128,  60
 121,  61,  62, 130
 122, 130, 129,  61
 123,  62,  63, 131
 124, 131, 130,  62
 125,  63,  64, 132
 126, 132, 131,  63
 127,  64,  65, 133
 128, 133, 132,  64
 129,  65,  66, 134
 130, 134, 133,  65
 131,  66,  67, 135
 132, 135, 134,  66
 133,  67,  68, 136
 134, 136, 135,  67
 135,  69,  70, 138
 136, 138, 137,  69
 137,  70,  71, 139
 138, 139, 138,  70
 139,  71,  72, 140
 140, 140, 139,  71
 141,  72,  73, 141
 142, 141, 140,  72
 143,  73,  74, 142
 144, 142, 141,  73
 145,  74,  75, 143
 146, 143, 142,  74
 147,  75,  76, 144
 148, 144, 143,  75
 149,  76,  77, 145
 150, 145, 144,  76
 151,  77,  78, 146
 152, 146, 145,  77
 153,  78,  79, 147
 154, 147, 146,  78
 155,  79,  80, 148
 156, 148, 147,  79
 157,  80,  81, 149
 158, 149, 148,  80
 159,  81,  82, 150
 160, 150, 149,  81
 161,  82,  83, 151
 162, 151, 150,  82
 163,  83,  84, 152
 164, 152, 151,  83
 165,  84,  85, 153
 166, 153, 152,  84
 167,  85,  86, 154
 168, 154, 153,  85
 169,  86,  87, 155
 170, 155, 154,  86
 171,  87,  88, 156
 172, 156, 155,  87
 173,  88,  89, 157
 174, 157, 156,  88
 175,  89,  90, 158
 176, 158, 157,  89
 177,  90,  91, 159
 178, 159, 158,  90
 179,  91,  92, 160
 180, 160, 159,  91
 181,  92,  93, 161
 182, 161, 160,  92
 183,  93,  94, 162
 184, 162, 161,  93
 185,  94,  95, 163
 186, 163, 162,  94
 187,  95,  96, 164
 188, 164, 163,  95
 189,  96,  97, 165
 190, 165, 164,  96
 191,  97,  98, 166
 192, 166, 165,  97
 193,  98,  99, 167
 194, 167, 166,  98
 195,  99, 100, 168
 196, 168, 167,  99
 197, 100, 101, 169
 198, 169, 168, 100
 199, 101, 102, 170
 200, 170, 169, 101
 201, 102, 103, 171
 202, 171, 170, 102
 203, 103, 104, 172
 204, 172, 171, 103
 205, 104, 105, 173
 206, 173, 172, 104
 207, 105, 106, 174
 208, 174, 173, 105
 209, 106, 107, 175
 210, 175, 174, 106
 211, 107, 108, 176
 212, 176, 175, 107
 213, 108, 109, 177
 214, 177, 176, 108
 215, 109, 110, 178
 216, 178, 177, 109
 217, 110, 111, 179
 218, 179, 178, 110
 219, 111, 112, 180
 220, 180, 179, 111
 221, 112, 113, 181
 222, 181, 180, 112
 223, 113, 114, 182
 224, 182, 181, 113
 225, 114, 115, 183
 226, 183, 182, 114
 227, 115, 116, 184
 228, 184, 183, 115
 229, 116, 117, 185
 230, 185, 184, 116
 231, 117, 118, 186
 232, 186, 185, 117
 233, 118, 119, 187
 234, 187, 186, 118
 235, 119, 120, 188
 236, 188, 187, 119
 237, 120, 121, 189
 238, 189, 188, 120
 239, 121, 122, 190
 240, 190, 189, 121
 241, 122, 123, 191
 242, 191, 190, 122
 243, 123, 124, 192
 244, 192, 191, 123
 245, 124, 125, 193
 246, 193, 192, 124
 247, 125, 126, 194
 248, 194, 193, 125
 249, 126, 127, 195
 250, 195, 194, 126
 251, 127, 128, 196
 252, 196, 195, 127
 253, 128, 129, 197
 254, 197, 196, 128
 255, 129, 130, 198
 256, 198, 197, 129
 257, 130, 131, 199
 258, 199, 198, 130
 259, 131, 132, 200
 260, 200, 199, 131
 261, 132, 133, 201
 262, 201, 200, 132
 263, 133, 134, 202
 264, 202, 201, 133
 265, 134, 135, 203
 266, 203, 202, 134
 267, 135, 136, 204
 268, 204, 203, 135
 269, 137, 138, 206
 270, 206, 205, 137
 271, 138, 139, 207
 272, 207, 206, 138
 273, 139, 140, 208
 274, 208, 207, 139
 275, 140, 141, 209
 276, 209, 208, 140
 277, 141, 142, 210
 278, 210, 209, 141
 279, 142, 143, 211
 280, 211, 210, 142
 281, 143, 144, 212
 282, 212, 211, 143
 283, 144, 145, 213
 284, 213, 212, 144
 285, 145, 146, 214
 286, 214, 213, 145
 287, 146, 147, 215
 288, 215, 214, 146
 289, 147, 148, 216
 290, 216, 215, 147
 291, 148, 149, 217
 292, 217, 216, 148
 293, 149, 150, 218
 294, 218, 217, 149
 295, 150, 151, 219
 296, 219, 218, 150
 297, 151, 152, 220
 298, 220, 219, 151
 299, 152, 153, 221
 300, 221, 220, 152
 301, 153, 154, 222
 302, 222, 221, 153
 303, 154, 155, 223
 304, 223, 222, 154
 305, 155, 156, 224
 306, 224, 223, 155
 307, 156, 157, 225
 308, 225, 224, 156
 309, 157, 158, 226
 310, 226, 225, 157
 311, 158, 159, 227
 312, 227, 226, 158
 313, 159, 160, 228
 314, 228, 227, 159
 315, 160, 161, 229
 316, 229, 228, 160
 317, 161, 162, 230
 318, 230, 229, 161
 319, 162, 163, 231
 320, 231, 230, 162
 321, 163, 164, 232
 322, 232, 231, 163
 323, 164, 165, 233
 324, 233, 232, 164
 325, 165, 166, 234
 326, 234, 233, 165
 327, 166, 167, 235
 328, 235, 234, 166
 329, 167, 168, 236
 330, 236, 235, 167
 331, 168, 169, 237
 332, 237, 236, 168
 333, 169, 170, 238
 334, 238, 237, 169
 335, 170, 171, 239
 336, 239, 238, 170
 337, 171, 172, 240
 338, 240, 239, 171
 339, 172, 173, 241
 340, 241, 240, 172
 341, 173, 174, 242
 342, 242, 241, 173
 343, 174, 175, 243
 344, 243, 242, 174
 345, 175, 176, 244
 346, 244, 243, 175
 347, 176, 177, 245
 348, 245, 244, 176
 349, 177, 178, 246
 350, 246, 245, 177
 351, 178, 179, 247
 352, 247, 246, 178
 353, 179, 180, 248
 354, 248, 247, 179
 355, 180, 181, 249
 356, 249, 248, 180
 357, 181, 182, 250
 358, 250, 249, 181
 359, 182, 183, 251
 360, 251, 250, 182
 361, 183, 184, 252
 362, 252, 251, 183
 363, 184, 185, 253
 364, 253, 252, 184
 365, 185, 186, 254
 366, 254, 253, 185
 367, 186, 187, 255
 368, 255, 254, 186
 369, 187, 188, 256
 370, 256, 255, 187
 371, 188, 189, 257
 372, 257, 256, 188
 373, 189, 190, 258
 374, 258, 257, 189
 375, 190, 191, 259
 376, 259, 258, 190
 377, 191, 192, 260
 378, 260, 259, 191
 379, 192, 193, 261
 380, 261, 260, 192
 381, 193, 194, 262
 382, 262, 261, 193
 383, 194, 195, 263
 384, 263, 262, 194
 385, 195, 196, 264
 386, 264, 263, 195
 387, 196, 197, 265
 388, 265, 264, 196
 389, 197, 198, 266
 390, 266, 265, 197
 391, 198, 199, 267
 392, 267, 266, 198
 393, 199, 200, 268
 394, 268, 267, 199
 395, 200, 201, 269
 396, 269, 268, 200
 397, 201, 202, 270
 398, 270, 269, 201
 399, 202, 203, 271
 400, 271, 270, 202
 401, 203, 204, 272
 402, 272, 271, 203
 403, 205, 206, 274
 404, 274, 273, 205
 405, 206, 207, 275
 406, 275, 274, 206
 407, 207, 208, 276
 408, 276, 275, 207
 409, 208, 209, 277
 410, 277, 276, 208
 411, 209, 210, 278
 412, 278, 277, 209
 413, 210, 211, 279
 414, 279, 278, 210
 415, 211, 212, 280
 416, 280, 279, 211
 417, 212, 213, 281
 418, 281, 280, 212
 419, 213, 214, 282
 420, 282, 281, 213
 421, 214, 215, 283
 422, 283, 282, 214
 423, 215, 216, 284
 424, 284, 283, 215
 425, 216, 217, 285
 426, 285, 284, 216
 427, 217, 218, 286
 428, 286, 285, 217
 429, 218, 219, 287
 430, 287, 286, 218
 431, 219, 220, 288
 432, 288, 287, 219
 433, 220, 221, 289
 434, 289, 288, 220
 435, 221, 222, 290
 436, 290, 289, 221
 437, 222, 223, 291
 438, 291, 290, 222
 439, 223, 224, 292
 440, 292, 291, 223
 441, 224, 225, 293
 442, 293, 292, 224
 443, 225, 226, 294
 444, 294, 293, 225
 445, 226, 227, 295
 446, 295, 294, 226
 447, 227, 228, 296
 448, 296, 295, 227
 449, 228, 229, 297
 450, 297, 296, 228
 451, 229, 230, 298
 452, 298, 297, 229
 453, 230, 231, 299
 454, 299, 298, 230
 455, 231, 232, 300
 456, 300, 299, 231
 457, 232, 233, 301
 458, 301, 300, 232
 459, 233, 234, 302
 460, 302, 301, 233
 461, 234, 235, 303
 462, 303, 302, 234
 463, 235, 236, 304
 464, 304, 303, 235
 465, 236, 237, 305
 466, 305, 304, 236
 467, 237, 238, 306
 468, 306, 305, 237
 469, 238, 239, 307
 470, 307, 306, 238
 471, 239, 240, 308
 472, 308, 307, 239
 473, 240, 241, 309
 474, 309, 308, 240
 475, 241, 242, 310
 476, 310, 309, 241
 477, 242, 243, 311
 478, 311, 310, 242
 479, 243, 244, 312
 480, 312, 311, 243
 481, 244, 245, 313
 482, 313, 312, 244
 483, 245, 246, 314
 484, 314, 313, 245
 485, 246, 247, 315
 486, 315, 314, 246
 487, 247, 248, 316
 488, 316, 315, 247
 489, 248, 249, 317
 490, 317, 316, 248
 491, 249, 250, 318
 492, 318, 317, 249
 493, 250, 251, 319
 494, 319, 318, 250
 495, 251, 252, 320
 496, 320, 319, 251
 497, 252, 253, 321
 498, 321, 320, 252
 499, 253, 254, 322
 500, 322, 321, 253
 501, 254, 255, 323
 502, 323, 322, 254
 503, 255, 256, 324
 504, 324, 323, 255
 505, 256, 257, 325
 506, 325, 324, 256
 507, 257, 258, 326
 508, 326, 325, 257
 509, 258, 259, 327
 510, 327, 326, 258
 511, 259, 260, 328
 512, 328, 327, 259
 513, 260, 261, 329
 514, 329, 328, 260
 515, 261, 262, 330
 516, 330, 329, 261
 517, 262, 263, 331
 518, 331, 330, 262
 519, 263, 264, 332
 520, 332, 331, 263
 521, 264, 265, 333
 522, 333, 332, 264
 523, 265, 266, 334
 524, 334, 333, 265
 525, 266, 267, 335
 526, 335, 334, 266
 527, 267, 268, 336
 528, 336, 335, 267
 529, 268, 269, 337
 530, 337, 336, 268
 531, 269, 270, 338
 532, 338, 337, 269
 533, 270, 271, 339
 534, 339, 338, 270
 535, 271, 272, 340
 536, 340, 339, 271
 537, 273, 274, 342
 538, 342, 341, 273
 539, 274, 275, 343
 540, 343, 342, 274
 541, 275, 276, 344
 542, 344, 343, 275
 543, 276, 277, 345
 544, 345, 344, 276
 545, 277, 278, 346
 546, 346, 345, 277
 547, 278, 279, 347
 548, 347, 346, 278
 549, 279, 280, 348
 550, 348, 347, 279
 551, 280, 281, 349
 552, 349, 348, 280
 553, 281, 282, 350
 554, 350, 349, 281
 555, 282, 283, 351
 556, 351, 350, 282
 557, 283, 284, 352
 558, 352, 351, 283
 559, 284, 285, 353
 560, 353, 352, 284
 561, 285, 286, 354
 562, 354, 353, 285
 563, 286, 287, 355
 564, 355, 354, 286
 565, 287, 288, 356
 566, 356, 355, 287
 567, 288, 289, 357
 568, 357, 356, 288
 569, 289, 290, 358
 570, 358, 357, 289
 571, 290, 291, 359
 572, 359, 358, 290
 573, 291, 292, 360
 574, 360, 359, 291
 575, 292, 293, 361
 576, 361, 360, 292
 577, 293, 294, 362
 578, 362, 361, 293
 579, 294, 295, 363
 580, 363, 362, 294
 581, 295, 296, 364
 582, 364, 363, 295
 583, 296, 297, 365
 584, 365, 364, 296
 585, 297, 298, 366
 586, 366, 365, 297
 587, 298, 299, 367
 588, 367, 366, 298
 589, 299, 300, 368
 590, 368, 367, 299
 591, 300, 301, 369
 592, 369, 368, 300
 593, 301, 302, 370
 594, 370, 369, 301
 595, 302, 303, 371
 596, 371, 370, 302
 597, 303, 304, 372
 598, 372, 371, 303
 599, 304, 305, 373
 600, 373, 372, 304
 601, 305, 306, 374
 602, 374, 373, 305
 603, 306, 307, 375
 604, 375, 374, 306
 605, 307, 308, 376
 606, 376, 375, 307
 607, 308, 309, 377
 608, 377, 376, 308
 609, 309, 310, 378
 610, 378, 377, 309
 611, 310, 311, 379
 612, 379, 378, 310
 613, 311, 312, 380
 614, 380, 379, 311
 615, 312, 313, 381
 616, 381, 380, 312
 617, 313, 314, 382
 618, 382, 381, 313
 619, 314, 315, 383
 620, 383, 382, 314
 621, 315, 316, 384
 622, 384, 383, 315
 623, 316, 317, 385
 624, 385, 384, 316
 625, 317, 318, 386
 626, 386, 385, 317
 627, 318, 319, 387
 628, 387, 386, 318
 629, 319, 320, 388
 630, 388, 387, 319
 631, 320, 321, 389
 632, 389, 388, 320
 633, 321, 322, 390
 634, 390, 389, 321
 635, 322, 323, 391
 636, 391, 390, 322
 637, 323, 324, 392
 638, 392, 391, 323
 639, 324, 325, 393
 640, 393, 392, 324
 641, 325, 326, 394
 642, 394, 393, 325
 643, 326, 327, 395
 644, 395, 394, 326
 645, 327, 328, 396
 646, 396, 395, 327
 647, 328, 329, 397
 648, 397, 396, 328
 649, 329, 330, 398
 650, 398, 397, 329
 651, 330, 331, 399
 652, 399, 398, 330
 653, 331, 332, 400
 654, 400, 399, 331
 655, 332, 333, 401
 656, 401, 400, 332
 657, 333, 334, 402
 658, 402, 401, 333
 659, 334, 335, 403
 660, 403, 402, 334
 661, 335, 336, 404
 662, 404, 403, 335
 663, 336, 337, 405
 664, 405, 404, 336
 665, 337, 338, 406
 666, 406, 405, 337
 667, 338, 339, 407
 668, 407, 406, 338
 669, 339, 340, 408
 670, 408, 407, 339
 671, 341, 342, 410
 672, 410, 409, 341
 673, 342, 343, 411
 674, 411, 410, 342
 675, 343, 344, 412
 676, 412, 411, 343
 677, 344, 345, 413
 678, 413, 412, 344
 679, 345, 346, 414
 680, 414, 413, 345
 681, 346, 347, 415
 682, 415, 414, 346
 683, 347, 348, 416
 684, 416, 415, 347
 685, 348, 349, 417
 686, 417, 416, 348
 687, 349, 350, 418
 688, 418, 417, 349
 689, 350, 351, 419
 690, 419, 418, 350
 691, 351, 352, 420
 692, 420, 419, 351
 693, 352, 353, 421
 694, 421, 420, 352
 695, 353, 354, 422
 696, 422, 421, 353
 697, 354, 355, 423
 698, 423, 422, 354
 699, 355, 356, 424
 700, 424, 423, 355
 701, 356, 357, 425
 702, 425, 424, 356
 703, 357, 358, 426
 704, 426, 425, 357
 705, 358, 359, 427
 706, 427, 426, 358
 707, 359, 360, 428
 708, 428, 427, 359
 709, 360, 361, 429
 710, 429, 428, 360
 711, 361, 362, 430
 712, 430, 429, 361
 713, 362, 363, 431
 714, 431, 430, 362
 715, 363, 364, 432
 716, 432, 431, 363
 717, 364, 365, 433
 718, 433, 432, 364
 719, 365, 366, 434
 720, 434, 433, 365
 721, 366, 367, 435
 722, 435, 434, 366
 723, 367, 368, 436
 724, 436, 435, 367
 725, 368, 369, 437
 726, 437, 436, 368
 727, 369, 370, 438
 728, 438, 437, 369
 729, 370, 371, 439
 730, 439, 438, 370
 731, 371, 372, 440
 732, 440, 439, 371
 733, 372, 373, 441
 734, 441, 440, 372
 735, 373, 374, 442
 736, 442, 441, 373
 737, 374, 375, 443
 738, 443, 442, 374
 739, 375, 376, 444
 740, 444, 443, 375
 741, 376, 377, 445
 742, 445, 444, 376
 743, 377, 378, 446
 744, 446, 445, 377
 745, 378, 379, 447
 746, 447, 446, 378
 747, 379, 380, 448
 748, 448, 447, 379
 749, 380, 381, 449
 750, 449, 448, 380
 751, 381, 382, 450
 752, 450, 449, 381
 753, 382, 383, 451
 754, 451, 450, 382
 755, 383, 384, 452
 756, 452, 451, 383
 757, 384, 385, 453
 758, 453, 452, 384
 759, 385, 386, 454
 760, 454, 453, 385
 761, 386, 387, 455
 762, 455, 454, 386
 763, 387, 388, 456
 764, 456, 455, 387
 765, 388, 389, 457
 766, 457, 456, 388
 767, 389, 390, 458
 768, 458, 457, 389
 769, 390, 391, 459
 770, 459, 458, 390
 771, 391, 392, 460
 772, 460, 459, 391
 773, 392, 393, 461
 774, 461, 460, 392
 775, 393, 394, 462
 776, 462, 461, 393
 777, 394, 395, 463
 778, 463, 462, 394
 779, 395, 396, 464
 780, 464, 463, 395
 781, 396, 397, 465
 782, 465, 464, 396
 783, 397, 398, 466
 784, 466, 465, 397
 785, 398, 399, 467
 786, 467, 466, 398
 787, 399, 400, 468
 788, 468, 467, 399
 789, 400, 401, 469
 790, 469, 468, 400
 791, 401, 402, 470
 792, 470, 469, 401
 793, 402, 403, 471
 794, 471, 470, 402
 795, 403, 404, 472
 796, 472, 471, 403
 797, 404, 405, 473
 798, 473, 472, 404
 799, 405, 406, 474
 800, 474, 473, 405
 801, 406, 407, 475
 802, 475, 474, 406
 803, 407, 408, 476
 804, 476, 475, 407
 805, 409, 410, 478
 806, 478, 477, 409
 807, 410, 411, 479
 808, 479, 478, 410
 809, 411, 412, 480
 810, 480, 479, 411
 811, 412, 413, 481
 812, 481, 480, 412
 813, 413, 414, 482
 814, 482, 481, 413
 815, 414, 415, 483
 816, 483, 482, 414
 817, 415, 416, 484
 818, 484, 483, 415
 819, 416, 417, 485
 820, 485, 484, 416
 821, 417, 418, 486
 822, 486, 485, 417
 823, 418, 419, 487
 824, 487, 486, 418
 825, 419, 420, 488
 826, 488, 487, 419
 827, 420, 421, 489
 828, 489, 488, 420
 829, 421, 422, 490
 830, 490, 489, 421
 831, 422, 423, 491
 832, 491, 490, 422
 833, 423, 424, 492
 834, 492, 491, 423
 835, 424, 425, 493
 836, 493, 492, 424
 837, 425, 426, 494
 838, 494, 493, 425
 839, 426, 427, 495
 840, 495, 494, 426
 841, 427, 428, 496
 842, 496, 495, 427
 843, 428, 429, 497
 844, 497, 496, 428
 845, 429, 430, 498
 846, 498, 497, 429
 847, 430, 431, 499
 848, 499, 498, 430
 849, 431, 432, 500
 850, 500, 499, 431
 851, 432, 433, 501
 852, 501, 500, 432
 853, 433, 434, 502
 854, 502, 501, 433
 855, 434, 435, 503
 856, 503, 502, 434
 857, 435, 436, 504
 858, 504, 503, 435
 859, 436, 437, 505
 860, 505, 504, 436
 861, 437, 438, 506
 862, 506, 505, 437
 863, 438, 439, 507
 864, 507, 506, 438
 865, 439, 440, 508
 866, 508, 507, 439
 867, 440, 441, 509
 868, 509, 508, 440
 869, 441, 442, 510
 870, 510, 509, 441
 871, 442, 443, 511
 872, 511, 510, 442
 873, 443, 444, 512
 874, 512, 511, 443
 875, 444, 445, 513
 876, 513, 512, 444
 877, 445, 446, 514
 878, 514, 513, 445
 879, 446, 447, 515
 880, 515, 514, 446
 881, 447, 448, 516
 882, 516, 515, 447
 883, 448, 449, 517
 884, 517, 516, 448
 885, 449, 450, 518
 886, 518, 517, 449
 887, 450, 451, 519
 888, 519, 518, 450
 889, 451, 452, 520
 890, 520, 519, 451
 891, 452, 453, 521
 892, 521, 520, 452
 893, 453, 454, 522
 894, 522, 521, 453
 895, 454, 455, 523
 896, 523, 522, 454
 897, 455, 456, 524
 898, 524, 523, 455
 899, 456, 457, 525
 900, 525, 524, 456
 901, 457, 458, 526
 902, 526, 525, 457
 903, 458, 459, 527
 904, 527, 526, 458
 905, 459, 460, 528
 906, 528, 527, 459
 907, 460, 461, 529
 908, 529, 528, 460
 909, 461, 462, 530
 910, 530, 529, 461
 911, 462, 463, 531
 912, 531, 530, 462
 913, 463, 464, 532
 914, 532, 531, 463
 915, 464, 465, 533
 916, 533, 532, 464
 917, 465, 466, 534
 918, 534, 533, 465
 919, 466, 467, 535
 920, 535, 534, 466
 921, 467, 468, 536
 922, 536, 535, 467
 923, 468, 469, 537
 924, 537, 536, 468
 925, 469, 470, 538
 926, 538, 537, 469
 927, 470, 471, 539
 928, 539, 538, 470
 929, 471, 472, 540
 930, 540, 539, 471
 931, 472, 473, 541
 932, 541, 540, 472
 933, 473, 474, 542
 934, 542, 541, 473
 935, 474, 475, 543
 936, 543, 542, 474
 937, 475, 476, 544
 938, 544, 543, 475
 939, 477, 478, 546
 940, 546, 545, 477
 941, 478, 479, 547
 942, 547, 546, 478
 943, 479, 480, 548
 944, 548, 547, 479
 945, 480, 481, 549
 946, 549, 548, 480
 947, 481, 482, 550
 948, 550, 549, 481
 949, 482, 483, 551
 950, 551, 550, 482
 951, 483, 484, 552
 952, 552, 551, 483
 953, 484, 485, 553
 954, 553, 552, 484
 955, 485, 486, 554
 956, 554, 553, 485
 957, 486, 487, 555
 958, 555, 554, 486
 959, 487, 488, 556
 960, 556, 555, 487
 961, 488, 489, 557
 962, 557, 556, 488
 963, 489, 490, 558
 964, 558, 557, 489
 965, 490, 491, 559
 966, 559, 558, 490
 967, 491, 492, 560
 968, 560, 559, 491
 969, 492, 493, 561
 970, 561, 560, 492
 971, 493, 494, 562
 972, 562, 561, 493
 973, 494, 495, 563
 974, 563, 562, 494
 975, 495, 496, 564
 976, 564, 563, 495
 977, 496, 497, 565
 978, 565, 564, 496
 979, 497, 498, 566
 980, 566, 565, 497
 981, 498, 499, 567
 982, 567, 566, 498
 983, 499, 500, 568
 984, 568, 567, 499
 985, 500, 501, 569
 986, 569, 568, 500
 987, 501, 502, 570
 988, 570, 569, 501
 989, 502, 503, 571
 990, 571, 570, 502
 991, 503, 504, 572
 992, 572, 571, 503
 993, 504, 505, 573
 994, 573, 572, 504
 995, 505, 506, 574
 996, 574, 573, 505
 997, 506, 507, 575
 998, 575, 574, 506
 999, 507, 508, 576
1000, 576, 575, 507
1001, 508, 509, 577
1002, 577, 576, 508
1003, 509, 510, 578
1004, 578, 577, 509
1005, 510, 511, 579
1006, 579, 578, 510
1007, 511, 512, 580
1008, 580, 579, 511
1009, 512, 513, 581
1010, 581, 580, 512
1011, 513, 514, 582
1012, 582, 581, 513
1013, 514, 515, 583
1014, 583, 582, 514
1015, 515, 516, 584
1016, 584, 583, 515
1017, 516, 517, 585
1018, 585, 584, 516
1019, 517, 518, 586
1020, 586, 585, 517
1021, 518, 519, 587
1022, 587, 586, 518
1023, 519, 520, 588
1024, 588, 587, 519
1025, 520, 521, 589
1026, 589, 588, 520
1027, 521, 522, 590
1028, 590, 589, 521
1029, 522, 523, 591
1030, 591, 590, 522
1031, 523, 524, 592
1032, 592, 591, 523
1033, 524, 525, 593
1034, 593, 592, 524
1035, 525, 526, 594
1036, 594, 593, 525
1037, 526, 527, 595
1038, 595, 594, 526
1039, 527, 528, 596
1040, 596, 595, 527
1041, 528, 529, 597
1042, 597, 596, 528
1043, 529, 530, 598
1044, 598, 597, 529
1045, 530, 531, 599
1046, 599, 598, 530
1047, 531, 532, 600
1048, 600, 599, 531
1049, 532, 533, 601
1050, 601, 600, 532
1051, 533, 534, 602
1052, 602, 601, 533
1053, 534, 535, 603
1054, 603, 602, 534
1055, 535, 536, 604
1056, 604, 603, 535
1057, 536, 537, 605
1058, 605, 604, 536
1059, 537, 538, 606
1060, 606, 605, 537
1061, 538, 539, 607
1062, 607, 606, 538
1063, 539, 540, 608
1064, 608, 607, 539
1065, 540, 541, 609
1066, 609, 608, 540
1067, 541, 542, 610
1068, 610, 609, 541
1069, 542, 543, 611
1070, 611, 610, 542
1071, 543, 544, 612
1072, 612, 611, 543
1073, 545, 546, 614
1074, 614, 613, 545
1075, 546, 547, 615
1076, 615, 614, 546
1077, 547, 548, 616
1078, 616, 615, 547
1079, 548, 549, 617
1080, 617, 616, 548
1081, 549, 550, 618
1082, 618, 617, 549
1083, 550, 551, 619
1084, 619, 618, 550
1085, 551, 552, 620
1086, 620, 619, 551
1087, 552, 553, 621
1088, 621, 620, 552
1089, 553, 554, 622
1090, 622, 621, 553
1091, 554, 555, 623
1092, 623, 622, 554
1093, 555, 556, 624
1094, 624, 623, 555
1095, 556, 557, 625
1096, 625, 624, 556
1097, 557, 558, 626
1098, 626, 625, 557
1099, 558, 559, 627
1100, 627, 626, 558
1101, 559, 560, 628
1102, 628, 627, 559
1103, 560, 561, 629
1104, 629, 628, 560
1105, 561, 562, 630
1106, 630, 629, 561
1107, 562, 563, 631
1108, 631, 630, 562
1109, 563, 564, 632
1110, 632, 631, 563
1111, 564, 565, 633
1112, 633, 632, 564
1113, 565, 566, 634
1114, 634, 633, 565
1115, 566, 567, 635
1116, 635, 634, 566
1117, 567, 568, 636
1118, 636, 635, 567
1119, 568, 569, 637
1120, 637, 636, 568
1121, 569, 570, 638
1122, 638, 637, 569
1123, 570, 571, 639
1124, 639, 638, 570
1125, 571, 572, 640
1126, 640, 639, 571
1127, 572, 573, 641
1128, 641, 640, 572
1129, 573, 574, 642
1130, 642, 641, 573
1131, 574, 575, 643
1132, 643, 642, 574
1133, 575, 576, 644
1134, 644, 643, 575
1135, 576, 577, 645
1136, 645, 644, 576
1137, 577, 578, 646
1138, 646, 645, 577
1139, 578, 579, 647
1140, 647, 646, 578
1141, 579, 580, 648
1142, 648, 647, 579
1143, 580, 581, 649
1144, 649, 648, 580
1145, 581, 582, 650
1146, 650, 649, 581
1147, 582, 583, 651
1148, 651, 650, 582
1149, 583, 584, 652
1150, 652, 651, 583
1151, 584, 585, 653
1152, 653, 652, 584
1153, 585, 586, 654
1154, 654, 653, 585
1155, 586, 587, 655
1156, 655, 654, 586
1157, 587, 588, 656
1158, 656, 655, 587
1159, 588, 589, 657
1160, 657, 656, 588
1161, 589, 590, 658
1162, 658, 657, 589
1163, 590, 591, 659
1164, 659, 658, 590
1165, 591, 592, 660
1166, 660, 659, 591
1167, 592, 593, 661
1168, 661, 660, 592
1169, 593, 594, 662
1170, 662, 661, 593
1171, 594, 595, 663
1172, 663, 662, 594
1173, 595, 596, 664
1174, 664, 663, 595
1175, 596, 597, 665
1176, 665, 664, 596
1177, 597, 598, 666
1178, 666, 665, 597
1179, 598, 599, 667
1180, 667, 666, 598
1181, 599, 600, 668
1182, 668, 667, 599
1183, 600, 601, 669
1184, 669, 668, 600
1185, 601, 602, 670
1186, 670, 669, 601
1187, 602, 603, 671
1188, 671, 670, 602
1189, 603, 604, 672
1190, 672, 671, 603
1191, 604, 605, 673
1192, 673, 672, 604
1193, 605, 606, 674
1194, 674, 673, 605
1195, 606, 607, 675
1196, 675, 674, 606
1197, 607, 608, 676
1198, 676, 675, 607
1199, 608, 609, 677
1200, 677, 676, 608
1201, 609, 610, 678
1202, 678, 677, 609
1203, 610, 611, 679
1204, 679, 678, 610
1205, 611, 612, 680
1206, 680, 679, 611
1207, 613, 614, 682
1208, 682, 681, 613
1209, 614, 615, 683
1210, 683, 682, 614
1211, 615, 616, 684
1212, 684, 683, 615
1213, 616, 617, 685
1214, 685, 684, 616
1215, 617, 618, 686
1216, 686, 685, 617
1217, 618, 619, 687
1218, 687, 686, 618
1219, 619, 620, 688
1220, 688, 687, 619
1221, 620, 621, 689
1222, 689, 688, 620
1223, 621, 622, 690
1224, 690, 689, 621
1225, 622, 623, 691
1226, 691, 690, 622
1227, 623, 624, 692
1228, 692, 691, 623
1229, 624, 625, 693
1230, 693, 692, 624
1231, 625, 626, 694
1232, 694, 693, 625
1233, 626, 627, 695
1234, 695, 694, 626
1235, 627, 628, 696
1236, 696, 695, 627
1237, 628, 629, 697
1238, 697, 696, 628
1239, 629, 630, 698
1240, 698, 697, 629
1241, 630, 631, 699
1242, 699, 698, 630
1243, 631, 632, 700
1244, 700, 699, 631
1245, 632, 633, 701
1246, 701, 700, 632
1247, 633, 634, 702
1248, 702, 701, 633
1249, 634, 635, 703
1250, 703, 702, 634
1251, 635, 636, 704
1252, 704, 703, 635
1253, 636, 637, 705
1254, 705, 704, 636
1255, 637, 638, 706
1256, 706, 705, 637
1257, 638, 639, 707
1258, 707, 706, 638
1259, 639, 640, 708
1260, 708, 707, 639
1261, 640, 641, 709
1262, 709, 708, 640
1263, 641, 642, 710
1264, 710, 709, 641
1265, 642, 643, 711
1266, 711, 710, 642
1267, 643, 644, 712
1268, 712, 711, 643
1269, 644, 645, 713
1270, 713, 712, 644
1271, 645, 646, 714
1272, 714, 713, 645
1273, 646, 647, 715
1274, 715, 714, 646
1275, 647, 648, 716
1276, 716, 715, 647
1277, 648, 649, 717
1278, 717, 716, 648
1279, 649, 650, 718
1280, 718, 717, 649
1281, 650, 651, 719
1282, 719, 718, 650
1283, 651, 652, 720
1284, 720, 719, 651
1285, 652, 653, 721
1286, 721, 720, 652
1287, 653, 654, 722
1288, 722, 721, 653
1289, 654, 655, 723
1290, 723, 722, 654
1291, 655, 656, 724
1292, 724, 723, 655
1293, 656, 657, 725
1294, 725, 724, 656
1295, 657, 658, 726
1296, 726, 725, 657
1297, 658, 659, 727
1298, 727, 726, 658
1299, 659, 660, 728
1300, 728, 727, 659
1301, 660, 661, 729
1302, 729, 728, 660
1303, 661, 662, 730
1304, 730, 729, 661
1305, 662, 663, 731
1306, 731, 730, 662
1307, 663, 664, 732
1308, 732, 731, 663
1309, 664, 665, 733
1310, 733, 732, 664
1311, 665, 666, 734
1312, 734, 733, 665
1313, 666, 667, 735
1314, 735, 734, 666
1315, 667, 668, 736
1316, 736, 735, 667
1317, 668, 669, 737
1318, 737, 736, 668
1319, 669, 670, 738
1320, 738, 737, 669
1321, 670, 671, 739
1322, 739, 738, 670
1323, 671, 672, 740
1324, 740, 739, 671
1325, 672, 673, 741
1326, 741, 740, 672
1327, 673, 674, 742
1328, 742, 741, 673
1329, 674, 675, 743
1330, 743, 742, 674
1331, 675, 676, 744
1332, 744, 743, 675
1333, 676, 677, 745
1334, 745, 744, 676
1335, 677, 678, 746
1336, 746, 745, 677
1337, 678, 679, 747
1338, 747, 746, 678
1339, 679, 680, 748
1340, 748, 747, 679
1341, 681, 682, 750
1342, 750, 749, 681
1343, 682, 683, 751
1344, 751, 750, 682
1345, 683, 684, 752
1346, 752, 751, 683
1347, 684, 685, 753
1348, 753, 752, 684
1349, 685, 686, 754
1350, 754, 753, 685
1351, 686, 687, 755
1352, 755, 754, 686
1353, 687, 688, 756
1354, 756, 755, 687
1355, 688, 689, 757
1356, 757, 756, 688
1357, 689, 690, 758
1358, 758, 757, 689
1359, 690, 691, 759
1360, 759, 758, 690
1361, 691, 692, 760
1362, 760, 759, 691
1363, 692, 693, 761
1364, 761, 760, 692
1365, 693, 694, 762
1366, 762, 761, 693
1367, 694, 695, 763
1368, 763, 762, 694
1369, 695, 696, 764
1370, 764, 763, 695
1371, 696, 697, 765
1372, 765, 764, 696
1373, 697, 698, 766
1374, 766, 765, 697
1375, 698, 699, 767
1376, 767, 766, 698
1377, 699, 700, 768
1378, 768, 767, 699
1379, 700, 701, 769
1380, 769, 768, 700
1381, 701, 702, 770
1382, 770, 769, 701
1383, 702, 703, 771
1384, 771, 770, 702
1385, 703, 704, 772
1386, 772, 771, 703
1387, 704, 705, 773
1388, 773, 772, 704
1389, 705, 706, 774
1390, 774, 773, 705
1391, 706, 707, 775
1392, 775, 774, 706
1393, 707, 708, 776
1394, 776, 775, 707
1395, 708, 709, 777
1396, 777, 776, 708
1397, 709, 710, 778
1398, 778, 777, 709
1399, 710, 711, 779
1400, 779, 778, 710
1401, 711, 712, 780
1402, 780, 779, 711
1403, 712, 713, 781
1404, 781, 780, 712
1405, 713, 714, 782
1406, 782, 781, 713
1407, 714, 715, 783
1408, 783, 782, 714
1409, 715, 716, 784
1410, 784, 783, 715
1411, 716, 717, 785
1412, 785, 784, 716
1413, 717, 718, 786
1414, 786, 785, 717
1415, 718, 719, 787
1416, 787, 786, 718
1417, 719, 720, 788
1418, 788, 787, 719
1419, 720, 721, 789
1420, 789, 788, 720
1421, 721, 722, 790
1422, 790, 789, 721
1423, 722, 723, 791
1424, 791, 790, 722
1425, 723, 724, 792
1426, 792, 791, 723
1427, 724, 725, 793
1428, 793, 792, 724
1429, 725, 726, 794
1430, 794, 793, 725
1431, 726, 727, 795
1432, 795, 794, 726
1433, 727, 728, 796
1434, 796, 795, 727
1435, 728, 729, 797
1436, 797, 796, 728
1437, 729, 730, 798
1438, 798, 797, 729
1439, 730, 731, 799
1440, 799, 798, 730
1441, 731, 732, 800
1442, 800, 799, 731
1443, 732, 733, 801
1444, 801, 800, 732
1445, 733, 734, 802
1446, 802, 801, 733
1447, 734, 735, 803
1448, 803, 802, 734
1449, 735, 736, 804
1450, 804, 803, 735
1451, 736, 737, 805
1452, 805, 804, 736
1453, 737, 738, 806
1454, 806, 805, 737
1455, 738, 739, 807
1456, 807, 806, 738
1457, 739, 740, 808
1458, 808, 807, 739
1459, 740, 741, 809
1460, 809, 808, 740
1461, 741, 742, 810
1462, 810, 809, 741
1463, 742, 743, 811
1464, 811, 810, 742
1465, 743, 744, 812
1466, 812, 811, 743
1467, 744, 745, 813
1468, 813, 812, 744
1469, 745, 746, 814
1470, 814, 813, 745
1471, 746, 747, 815
1472, 815, 814, 746
1473, 747, 748, 816
1474, 816, 815, 747
*Nset, nset=_PickedSet2, internal, generate
   1,  816,    1
*Elset, elset=_PickedSet2, internal, generate
    1,  1474,     1
** Section: Section-1
*Solid Section, elset=_PickedSet2, material=Material-1
1.,
*End Part
**  
**
** ASSEMBLY
**
*Assembly, name=Assembly
**  
*Instance, name=plate-1, part=plate
*End Instance
**  
*Nset, nset=LeftEdgeSet, instance=plate-1, generate
  68,  816,   68
*Elset, elset=LeftEdgeSet, instance=plate-1, generate
  133,  1473,   134
*Elset, elset=_LoadSurface_S2, internal, instance=plate-1, generate
    2,  1342,   134
*Surface, type=ELEMENT, name=LoadSurface
_LoadSurface_S2, S2
*End Assembly
** 
** MATERIALS
** 
*Material, name=Material-1
*Elastic
 2.9e+07, 0.3
** 
** BOUNDARY CONDITIONS
** 
** Name: BC-LeftEdge Type: Displacement/Rotation
*Boundary
LeftEdgeSet, 1, 1
LeftEdgeSet, 2, 2
** ----------------------------------------------------------------
** 
** STEP: Step-1
** 
*Step, name=Step-1, nlgeom=NO
*Static
1., 1., 1e-05, 1.
** 
** LOADS
** 
** Name: Load-1   Type: Pressure
*Dsload
LoadSurface, P, -8999.
** 
** OUTPUT REQUESTS
** 
*Restart, write, frequency=0
** 
** FIELD OUTPUT: F-Output-1
** 
*Output, field, variable=PRESELECT
** 
** HISTORY OUTPUT: H-Output-1
** 
*Output, history, variable=PRESELECT
*End Step
