*Heading
** Job name: plate_three4__6999 Model name: PlateModel
** Generated by: Abaqus/CAE 2022
*Preprint, echo=NO, model=NO, history=NO, contact=NO
**
** PARTS
**
*Part, name=plate
*Node
      1,   16.8019371,  0.867767453
      2,   16.2469788,   1.56366301
      3,   15.4450417,    1.9498558
      4,   13.7530203,   1.56366301
      5,   13.1980619,  0.867767453
      6,          13.,           0.
      7,   13.1980619, -0.867767453
      8,   13.7530203,  -1.56366301
      9,   14.5549583,   -1.9498558
     10,   16.2469788,  -1.56366301
     11,   16.8019371, -0.867767453
     12,          17.,           0.
     13,  -13.1980619,  0.867767453
     14,  -13.7530203,   1.56366301
     15,  -14.5549583,    1.9498558
     16,  -16.2469788,   1.56366301
     17,  -16.8019371,  0.867767453
     18,         -17.,           0.
     19,  -16.8019371, -0.867767453
     20,  -16.2469788,  -1.56366301
     21,  -15.4450417,   -1.9498558
     22,  -13.7530203,  -1.56366301
     23,  -13.1980619, -0.867767453
     24,         -13.,           0.
     25,    1.8019377,  0.867767453
     26,   1.24697959,   1.56366301
     27,  0.445041865,    1.9498558
     28,  -1.24697959,   1.56366301
     29,   -1.8019377,  0.867767453
     30,          -2.,           0.
     31,   -1.8019377, -0.867767453
     32,  -1.24697959,  -1.56366301
     33, -0.445041865,   -1.9498558
     34,   1.24697959,  -1.56366301
     35,    1.8019377, -0.867767453
     36,           2.,           0.
     37,   28.2089558,           5.
     38,   26.4179096,           5.
     39,   24.6268654,           5.
     40,   22.8358212,           5.
     41,   21.0447769,           5.
     42,   18.3582096,           5.
     43,   16.5671635,           5.
     44,   14.7761192,           5.
     45,    12.985075,           5.
     46,   11.1940298,           5.
     47,   9.40298462,           5.
     48,   7.61194038,           5.
     49,   5.82089567,           5.
     50,   4.02985096,           5.
     51,   2.23880601,           5.
     52,  0.447761208,           5.
     53,  -2.23880601,           5.
     54,  -4.02985096,           5.
     55,  -5.82089567,           5.
     56,  -7.61194038,           5.
     57,  -9.40298462,           5.
     58,  -11.1940298,           5.
     59,   -12.985075,           5.
     60,  -14.7761192,           5.
     61,  -16.5671635,           5.
     62,  -18.3582096,           5.
     63,  -21.0447769,           5.
     64,  -22.8358212,           5.
     65,  -24.6268654,           5.
     66,  -26.4179096,           5.
     67,  -28.2089558,           5.
     68,          30.,           5.
     69,         -30.,           5.
     70,         -30.,   3.18181825
     71,         -30.,   1.36363637
     72,         -30., -0.454545468
     73,         -30.,  -1.36363637
     74,         -30.,  -3.18181825
     75,         -30.,          -5.
     76,  -28.2089558,          -5.
     77,  -26.4179096,          -5.
     78,  -24.6268654,          -5.
     79,  -22.8358212,          -5.
     80,  -21.0447769,          -5.
     81,  -18.3582096,          -5.
     82,  -16.5671635,          -5.
     83,  -14.7761192,          -5.
     84,   -12.985075,          -5.
     85,  -11.1940298,          -5.
     86,  -9.40298462,          -5.
     87,  -7.61194038,          -5.
     88,  -5.82089567,          -5.
     89,  -4.02985096,          -5.
     90,  -2.23880601,          -5.
     91, -0.447761208,          -5.
     92,   2.23880601,          -5.
     93,   4.02985096,          -5.
     94,   5.82089567,          -5.
     95,   7.61194038,          -5.
     96,   9.40298462,          -5.
     97,   11.1940298,          -5.
     98,    12.985075,          -5.
     99,   14.7761192,          -5.
    100,   16.5671635,          -5.
    101,   18.3582096,          -5.
    102,   21.0447769,          -5.
    103,   22.8358212,          -5.
    104,   24.6268654,          -5.
    105,   26.4179096,          -5.
    106,   28.2089558,          -5.
    107,          30.,          -5.
    108,          30.,  -3.18181825
    109,          30.,  -1.36363637
    110,          30.,  0.454545468
    111,          30.,   1.36363637
    112,          30.,   3.18181825
    113,  -1.79520047,  -3.40825582
    114,  -12.9404249,  -1.79353106
    115,   13.0432434,  -3.38142776
    116,   2.06183457,  -1.79887342
    117,   17.0196915,  -1.70609021
    118,   18.7505722,  -1.74343252
    119,   20.6286201,  -1.68044972
    120,   22.5393639,  -1.69859922
    121,   24.4265766,  -1.76371253
    122,   26.2770996,  -1.77519214
    123,   28.2602291,  -1.57564449
    124,   28.0675182, -0.0479245856
    125,   26.2320175, -0.069130294
    126,   24.3705082, -0.00293275854
    127,    22.556345, 0.0066738911
    128,   20.6758862, 0.0560445152
    129,   18.5634518, 0.00931966584
    130,   11.1932201,  -3.39846873
    131,   9.39223862,  -3.41815472
    132,   12.9433804,  -1.72741747
    133,   7.57195377,  -3.42650104
    134,   11.1951008,  -1.76910377
    135,   5.72667456,  -3.42630434
    136,   9.38664627,  -1.78444374
    137,   3.87019229,  -3.42235613
    138,   7.53936481,  -1.79870951
    139,   1.99883652,  -3.43370223
    140,   5.67044115,  -1.76237047
    141, 0.0378769934,  -3.52714372
    142,   3.62562346,  -1.69541526
    143,  -3.91427064,  -3.43931627
    144,  -5.72460175,  -3.44096327
    145,  -2.07310224,  -1.70949972
    146,  -7.57375526,  -3.41028643
    147,  -3.84953332,  -1.85199356
    148,  -9.39719963,  -3.40564632
    149,  -5.46752787,  -1.63523602
    150,  -11.2211704,  -3.41007161
    151,  -7.53532124,  -1.67700183
    152,  -13.0558968,  -3.39576483
    153,  -9.41737366,    -1.699453
    154,  -14.8594036,  -3.53766227
    155,  -11.3907051,  -1.69904876
    156,   11.4116106, -0.0254168641
    157,   9.41723156, -0.0614203103
    158,   7.52698994, -0.101107165
    159,   5.66504192, -0.0726906508
    160,   3.64171457, 0.0555015542
    161,   12.9404249,   1.79353106
    162,   11.3907051,   1.69904876
    163,   9.41737366,     1.699453
    164,   7.53532124,   1.67700183
    165,   5.46752787,   1.63523602
    166,   3.84953332,   1.85199356
    167,   2.07310224,   1.70949972
    168,   28.3731155,   3.26294136
    169,   26.3653736,   3.40022802
    170,   24.4910316,    3.4277575
    171,   22.6214886,   3.45619297
    172,   20.7214432,   3.52815819
    173,   18.7464733,   3.46706438
    174,   16.5078297,   3.27739334
    175,   14.8594036,   3.53766227
    176,   13.0558968,   3.39576483
    177,   11.2211704,   3.41007161
    178,   9.39719963,   3.40564632
    179,   7.57375526,   3.41028643
    180,   5.72460175,   3.44096327
    181,   3.91427064,   3.43931627
    182,   1.79520047,   3.40825582
    183, -0.0378769934,   3.52714372
    184,  -1.99883652,   3.43370223
    185,  -3.87019229,   3.42235613
    186,  -5.72667456,   3.42630434
    187,  -7.57195377,   3.42650104
    188,  -9.39223862,   3.41815472
    189,  -11.1932201,   3.39846873
    190,  -13.0432434,   3.38142776
    191,  -14.8601522,   3.53789377
    192,  -16.5128174,   3.29992962
    193,  -18.7521248,   3.49474955
    194,  -20.6023407,    3.4950695
    195,  -22.6201019,   3.41331363
    196,  -24.4971581,   3.43389535
    197,  -26.3579578,   3.41539025
    198,  -28.3633232,    3.2744236
    199,  -28.2602291,   1.57564449
    200,  -26.2770996,   1.77519214
    201,  -24.4265766,     1.763713
    202,  -22.5393658,   1.69859946
    203,  -20.6286201,    1.6804496
    204,  -18.7505722,   1.74343252
    205,  -17.0196915,   1.70609021
    206,  -12.9433804,   1.72741747
    207,  -11.1951008,   1.76910377
    208,  -9.38664627,   1.78444374
    209,  -7.53936481,   1.79870951
    210,  -5.67044115,   1.76237047
    211,  -3.62562346,   1.69541526
    212,  -2.06183457,   1.79887342
    213,   16.8406601,   1.69586575
    214,    18.760828,   1.80924189
    215,      20.6173,   1.70524442
    216,   22.2880192,   1.69432652
    217,   24.3584232,   1.74752879
    218,   26.2836895,   1.68413985
    219,   28.3002453,   1.52324378
    220,  -3.64171457, -0.0555015542
    221,  -5.66504192, 0.0726906508
    222,  -7.52698994,  0.101107165
    223,  -9.41723156, 0.0614203103
    224,  -11.4116106, 0.0254168641
    225,  -28.3731155,  -3.26294136
    226,  -26.3653736,  -3.40022802
    227,  -24.4910316,   -3.4277575
    228,  -22.6214886,  -3.45619297
    229,  -20.7214432,  -3.52815819
    230,  -18.7464733,  -3.46706438
    231,  -16.5078297,  -3.27739334
    232,   14.8601522,  -3.53789377
    233,   16.5128174,  -3.29992962
    234,   18.7521248,  -3.49474955
    235,   20.6023407,   -3.4950695
    236,   22.6201019,  -3.41331339
    237,   24.4971581,  -3.43389511
    238,   26.3579578,  -3.41539025
    239,   28.3633232,   -3.2744236
    240,  -16.8406601,  -1.69586575
    241,   -18.760828,  -1.80924189
    242,     -20.6173,  -1.70524442
    243,  -22.2880192,   -1.6943264
    244,  -24.3584232,  -1.74752879
    245,  -26.2836895,  -1.68413985
    246,  -28.3002453,  -1.52324378
    247,  -18.5634518, -0.00931965746
    248,  -20.6758881, -0.0560445227
    249,   -22.556345, -0.00667375606
    250,  -24.3705082, 0.00293286238
    251,  -26.2320175, 0.0691303015
    252,  -28.0675182, 0.0479245856
    253,   14.5549583,    1.9498558
    254,   15.4450417,   -1.9498558
    255,  -15.4450417,    1.9498558
    256,  -14.5549583,   -1.9498558
    257, -0.445041865,    1.9498558
    258,  0.445041865,   -1.9498558
    259,   29.1044769,           5.
    260,   27.3134327,           5.
    261,   25.5223885,           5.
    262,   23.7313442,           5.
    263,   21.9402981,           5.
    264,   20.1492538,           5.
    265,   19.2537308,           5.
    266,   17.4626865,           5.
    267,   15.6716413,           5.
    268,   13.8805971,           5.
    269,   12.0895519,           5.
    270,   10.2985077,           5.
    271,    8.5074625,           5.
    272,   6.71641779,           5.
    273,   4.92537308,           5.
    274,   3.13432837,           5.
    275,   1.34328353,           5.
    276, -0.447761208,           5.
    277,  -1.34328353,           5.
    278,  -3.13432837,           5.
    279,  -4.92537308,           5.
    280,  -6.71641779,           5.
    281,   -8.5074625,           5.
    282,  -10.2985077,           5.
    283,  -12.0895519,           5.
    284,  -13.8805971,           5.
    285,  -15.6716413,           5.
    286,  -17.4626865,           5.
    287,  -19.2537308,           5.
    288,  -20.1492538,           5.
    289,  -21.9402981,           5.
    290,  -23.7313442,           5.
    291,  -25.5223885,           5.
    292,  -27.3134327,           5.
    293,  -29.1044769,           5.
    294,         -30.,     4.090909
    295,         -30.,   2.27272725
    296,         -30.,  0.454545468
    297,         -30.,  -2.27272725
    298,         -30.,    -4.090909
    299,  -29.1044769,          -5.
    300,  -27.3134327,          -5.
    301,  -25.5223885,          -5.
    302,  -23.7313442,          -5.
    303,  -21.9402981,          -5.
    304,  -20.1492538,          -5.
    305,  -19.2537308,          -5.
    306,  -17.4626865,          -5.
    307,  -15.6716413,          -5.
    308,  -13.8805971,          -5.
    309,  -12.0895519,          -5.
    310,  -10.2985077,          -5.
    311,   -8.5074625,          -5.
    312,  -6.71641779,          -5.
    313,  -4.92537308,          -5.
    314,  -3.13432837,          -5.
    315,  -1.34328353,          -5.
    316,  0.447761208,          -5.
    317,   1.34328353,          -5.
    318,   3.13432837,          -5.
    319,   4.92537308,          -5.
    320,   6.71641779,          -5.
    321,    8.5074625,          -5.
    322,   10.2985077,          -5.
    323,   12.0895519,          -5.
    324,   13.8805971,          -5.
    325,   15.6716413,          -5.
    326,   17.4626865,          -5.
    327,   19.2537308,          -5.
    328,   20.1492538,          -5.
    329,   21.9402981,          -5.
    330,   23.7313442,          -5.
    331,   25.5223885,          -5.
    332,   27.3134327,          -5.
    333,   29.1044769,          -5.
    334,          30.,    -4.090909
    335,          30.,  -2.27272725
    336,          30., -0.454545468
    337,          30.,   2.27272725
    338,          30.,     4.090909
    339,  -1.41640246,  -2.34356236
    340,   1.41640246,   2.34356236
    341,  -16.3203182,   2.30947495
    342,   1.36525762,  -2.54668927
    343,  -13.6215143,  -2.51430964
    344,   16.3203182,  -2.30947495
    345,   13.6215143,   2.51430964
    346,  -1.36525762,   2.54668927
    347,    16.292017,   2.27865243
    348,   -16.292017,  -2.27865243
    349,  -13.6156158,   2.49554515
    350,   13.6156158,  -2.49554515
    351,   17.5281773,  -1.15751314
    352,   2.73300648,  -1.26880264
    353,   -12.270256,  -1.26900315
    354,    12.270256,   1.26900315
    355,  -2.73300648,   1.26880264
    356,  -17.5281773,   1.15751314
    357,   2.57446098,   1.16417909
    358,   17.4858952,   1.37603736
    359,  -12.4462366,   1.15177107
    360,  -17.4858952,  -1.37603736
    361,   12.4462366,  -1.15177107
    362,  -2.57446098,  -1.16417909
    363,  -20.6094856,  -4.38346529
    364,   20.6094856,   4.38346529
    365,   28.7889385,   4.17558384
    366,    26.853241,   4.19982958
    367,   25.0232906,   4.22622442
    368,   23.1927643,   4.22992802
    369,   19.7215958,   4.10954762
    370,   17.0507584,   4.18738031
    371,  -28.7889385,  -4.17558384
    372,   -26.853241,  -4.19982958
    373,  -25.0232906,  -4.22622442
    374,  -23.1927643,  -4.22992802
    375,  -19.7215958,  -4.10954762
    376,  -17.0507584,  -4.18738031
    377,  -16.1248817,  -4.22492456
    378,   16.1248817,   4.22492456
    379,   15.2477493,    4.2746501
    380,  -15.2477493,   -4.2746501
    381,   27.8057957,   4.16709137
    382,   25.9353981,   4.21251297
    383,   5.32645988,   4.23110247
    384,   3.51446366,    4.2249341
    385,   24.0965691,   4.21896982
    386,   4.40810871,  -4.22149515
    387,   6.23182917,  -4.22182417
    388, -0.176009163,   4.26190615
    389, -0.915921509,   4.42006779
    390,  -2.58716106,   4.22428894
    391,  -12.5642271,  -4.20618725
    392,  -10.7527361,   -4.2104044
    393,   -14.363658,  -4.24766731
    394,  -18.8088398,   4.37702274
    395,  -21.3533897,   4.26050615
    396,  -22.2838459,  -4.24852705
    397,  -15.2512922,   4.27347088
    398,  -17.0550728,   4.19485474
    399,  -1.76296425,  -4.34649611
    400,  0.176009163,  -4.26190615
    401,  0.915921509,  -4.42006779
    402,  -8.94628429,  -4.21158981
    403,   1.76296425,   4.34649611
    404,   22.2838459,   4.24852705
    405,   18.0106983,   4.23476505
    406,    14.363658,   4.24766731
    407,   12.5642271,   4.20618725
    408,   10.7527361,    4.2104044
    409,   8.94628429,   4.21158981
    410,   7.13920546,   4.21738577
    411,  -4.40810871,   4.22149515
    412,  -6.23182917,   4.22182417
    413,  -8.04300499,   4.21650696
    414,  -9.84688568,   4.21075583
    415,  -11.6463938,   4.19947815
    416,  -13.4643869,   4.21549082
    417,  -23.1899567,   4.22352028
    418,  -24.0965691,  -4.21896982
    419,  -25.0243111,   4.22724724
    420,  -25.9353981,  -4.21251297
    421,  -26.8519936,   4.20235348
    422,  -27.8057957,  -4.16709137
    423,   -28.787096,   4.17878914
    424,  -18.0106983,  -4.23476505
    425,  -7.13920546,  -4.21738577
    426,  -5.32645988,  -4.23110247
    427,  -3.51446366,   -4.2249341
    428,   2.58716106,  -4.22428894
    429,   8.04300499,  -4.21650696
    430,   9.84688568,  -4.21075583
    431,   11.6463938,  -4.19947815
    432,   13.4643869,  -4.21549082
    433,   15.2512922,  -4.27347088
    434,   17.0550728,  -4.19485474
    435,   18.8088398,  -4.37702274
    436,   21.3533897,  -4.26050615
    437,   23.1899586,  -4.22352028
    438,   25.0243111,  -4.22724724
    439,   26.8519936,  -4.20235348
    440,    28.787096,  -4.17878914
    441,   21.3837833,   4.27945566
    442,   18.8181419,    4.3622756
    443,   13.4674826,   4.21735096
    444,   11.6601191,    4.2050252
    445,   9.84989166,   4.20755243
    446,    8.0426712,   4.21074533
    447,   6.22947407,   4.22136259
    448,   4.41985512,   4.22782278
    449,   2.56996846,   4.23113537
    450,  0.804142773,   4.05946207
    451,  -1.67049801,   4.27838278
    452,  -3.49741983,   4.21545887
    453,   -5.3130188,   4.21617413
    454,  -7.13745165,   4.21721315
    455,  -8.94503498,   4.21173573
    456,  -10.7458696,   4.20384979
    457,  -12.5547247,   4.19533157
    458,  -14.3645124,   4.24670267
    459,   -16.125124,    4.2343154
    460,  -18.0146828,   4.24090338
    461,  -19.6889343,   4.13707495
    462,  -20.5677395,   4.37853003
    463,  -22.2641792,    4.2234993
    464,  -24.0972919,   4.21909571
    465,   -25.934124,   4.21563148
    466,  -27.8036385,   4.16995716
    467,  -21.3837833,  -4.27945566
    468,  -18.8181419,   -4.3622756
    469,  -13.4674826,  -4.21735096
    470,  -11.6601191,   -4.2050252
    471,  -9.84989166,  -4.20755243
    472,   -8.0426712,  -4.21074533
    473,  -6.22947407,  -4.22136259
    474,  -4.41985512,  -4.22782278
    475,  -2.56996846,  -4.23113537
    476, -0.804142773,  -4.05946207
    477,   1.67049801,  -4.27838278
    478,   3.49741983,  -4.21545887
    479,    5.3130188,  -4.21617413
    480,   7.13745165,  -4.21721315
    481,   8.94503498,  -4.21173573
    482,   10.7458696,  -4.20384979
    483,   12.5547247,  -4.19533157
    484,   14.3645124,  -4.24670267
    485,    16.125124,   -4.2343154
    486,   18.0146828,  -4.24090338
    487,   19.6889343,  -4.13707495
    488,   20.5677395,  -4.37853003
    489,   22.2641792,  -4.22349882
    490,   24.0972919,  -4.21909523
    491,    25.934124,  -4.21563148
    492,   27.8036385,  -4.16995716
    493,   29.2749748,    3.4926734
    494,  -29.2749748,   -3.4926734
    495,   29.2184772,  -2.75114846
    496,   29.1534672,  -1.00201297
    497,  -29.2184772,   2.75114846
    498,  -29.1534672,   1.00201297
    499,   29.1700993,  0.967902958
    500,   29.2022228,   1.87349153
    501,  -29.1700993, -0.967902958
    502,  -29.2022228,  -1.87349153
    503,  -29.2737789,   3.49541759
    504,  -29.1900997,   1.89069033
    505,   -29.040905, 0.0222961903
    506,  -29.2300797,  -2.74082947
    507,   29.2737789,  -3.49541759
    508,   29.1900997,  -1.89069033
    509,    29.040905, -0.0222961903
    510,   29.2300797,   2.74082947
    511,  -12.6060371,  -2.61707163
    512,   12.6060371,   2.61707163
    513,   2.41717315,  -2.63377976
    514,  -2.41717315,   2.63377976
    515,  -2.43813753,  -2.54783726
    516,   2.43813753,   2.54783726
    517,  -12.5680113,    2.5540545
    518,   12.5680113,   -2.5540545
    519,   17.2933712,   2.34581995
    520,  -17.2933712,  -2.34581995
    521,  -17.2715569,   2.51112914
    522,   17.2715569,  -2.51112914
    523,   2.67922926,  0.450289577
    524,  -2.67922926, -0.450289577
    525,  -12.3412971,  0.435129732
    526,   12.3412971, -0.435129732
    527,    17.635088,   0.48128143
    528,   -17.635088,  -0.48128143
    529,   12.3050556,  0.419761866
    530,  -17.6363697,  0.423891634
    531,  -2.70727658,  0.411492556
    532,   2.70727658, -0.411492556
    533,   17.6363697, -0.423891604
    534,  -12.3050556, -0.419761866
    535,   27.3254814,   3.33550262
    536,   23.5463142,   3.42721915
    537,  -27.3254814,  -3.33550262
    538,  -23.5463142,  -3.42721915
    539,   17.6450481,   3.34883261
    540,  -17.6450481,  -3.34883261
    541,   25.4336071,   3.41059709
    542,  -25.4336071,  -3.41059709
    543,  -21.6610775,   3.40988183
    544,   21.6610775,  -3.40988183
    545,  -21.7112141,  -3.50692582
    546,   21.7112141,   3.50692582
    547,   17.6438847,  -3.38775539
    548,  -17.6438847,   3.38775516
    549,   -2.9461174,     3.423841
    550,    2.9461174,    -3.423841
    551,   2.93908906,    3.4129653
    552,  -2.93908906,   -3.4129653
    553,  -23.5566349,   3.41641998
    554,   23.5566349,  -3.41641951
    555,   15.6289797,   3.62177205
    556,  -15.6289797,  -3.62177205
    557,  -15.6316843,    3.6281786
    558,   15.6316843,   -3.6281786
    559,  -4.79253864,   3.41391683
    560,   4.79253864,  -3.41391683
    561,   4.81393385,   3.44097757
    562,  -4.81393385,  -3.44097757
    563,  -25.4347954,   3.42628551
    564,   25.4347954,  -3.42628527
    565,   13.9749622,   3.45938873
    566,  -13.9749622,  -3.45938873
    567,   -13.971714,   3.45330834
    568,    13.971714,  -3.45330834
    569,  -6.65561008,   3.42305541
    570,   6.65561008,  -3.42305541
    571,   6.64828634,   3.41685557
    572,  -6.64828634,  -3.41685557
    573,  -27.3095779,    3.3568902
    574,   27.3095779,   -3.3568902
    575,   12.1339006,    3.4081049
    576,  -12.1339006,   -3.4081049
    577,  -12.1087074,   3.38472819
    578,   12.1087074,  -3.38472819
    579,  -8.48483944,   3.41772318
    580,   8.48483944,  -3.41772318
    581,   8.48995686,   3.39108849
    582,  -8.48995686,  -3.39108849
    583,  -10.3090572,  -3.40211201
    584,   10.3090572,   3.40211201
    585,  -10.2901773,   3.40637064
    586,   10.2901773,  -3.40637064
    587,   15.3957205,   2.77982402
    588,  -15.3957205,  -2.77982402
    589,  -15.4010496,   2.78828263
    590,   15.4010496,  -2.78828263
    591,  -14.4806976,   2.84497714
    592,   14.4806976,  -2.84497714
    593, -0.505333543,  -2.87183332
    594,  0.505333543,   2.87183332
    595, -0.456364423,   2.89755201
    596,  0.456364423,  -2.89755201
    597,  -14.4813118,  -2.84820819
    598,   14.4813118,   2.84820819
    599,    28.572546,   2.37124586
    600,   -28.572546,  -2.37124586
    601,  -28.5499992,   2.39773798
    602,   28.5499992,  -2.39773798
    603,  -22.0797749,   2.55708909
    604,   22.0797749,  -2.55708885
    605,  -22.0262318,  -2.70499992
    606,   22.0262318,   2.70500016
    607,  -3.38410187,  0.833881736
    608,   11.6414833,  0.846215844
    609,   3.38410187, -0.833881736
    610,  -11.6414833, -0.846215844
    611,  -18.2577076,  0.999143839
    612,   18.2577076, -0.999143839
    613,  -3.31823063,   2.62578416
    614,   3.31823063,  -2.62578416
    615,  -23.9844398,   2.59965134
    616,   23.9844398,  -2.59965086
    617,   -23.940527,  -2.60129905
    618,    23.940527,   2.60129905
    619,  0.945823491,  -3.62363482
    620, -0.945823491,   3.62363482
    621,  -5.21581125,   2.58984852
    622,   5.21581125,  -2.58984852
    623,   5.17929363,   2.62500525
    624,  -5.17929363,  -2.62500525
    625,   -27.741993,   2.48427749
    626,    27.741993,  -2.48427749
    627,  -27.7714062,  -2.44521165
    628,   27.7714062,   2.44521165
    629,  -25.8509712,   2.60588622
    630,   25.8509712,  -2.60588622
    631,   -25.846117,  -2.55623317
    632,    25.846117,   2.55623317
    633,  -7.08902073,    2.6141293
    634,   7.08902073,   -2.6141293
    635,   7.07386971,   2.55750942
    636,  -7.07386971,  -2.55750942
    637,   11.7205963,   2.61729622
    638,  -11.7205963,  -2.61729622
    639,  -8.92694187,   2.60870123
    640,   8.92694187,  -2.60870123
    641,   8.94336319,   2.54941487
    642,  -8.94336319,  -2.54941487
    643,  -9.86675549,  -2.56330514
    644,   9.86675549,   2.56330514
    645,   9.83491611,  -2.59974241
    646,  -9.83491611,   2.59974241
    647,  -10.7410641,   2.59076929
    648,   10.7410641,  -2.59076929
    649,   10.8089161,   2.57106423
    650,  -10.8089161,  -2.57106423
    651,   8.01817131,   2.54182029
    652,  -8.01817131,  -2.54182029
    653,   8.01099968,  -2.61025763
    654,  -8.01099968,   2.61025763
    655,   26.8084698,   2.51207471
    656,  -26.8084698,  -2.51207471
    657,   26.7906246,  -2.55936193
    658,  -26.7906246,   2.55936193
    659,   6.10742903,   2.56071019
    660,  -6.10742903,  -2.56071019
    661,   6.15937901,  -2.60219121
    662,  -6.15937901,   2.60219121
    663,   24.8933716,   2.57668233
    664,  -24.8933716,  -2.57668233
    665,   24.9240875,  -2.60565996
    666,  -24.9240875,    2.6056602
    667,  -25.3617573,   1.77526426
    668,   25.3617573,  -1.77526414
    669,  -6.61543036,   1.78356814
    670,   6.61543036,  -1.78356814
    671,  -8.46909523,   1.78831661
    672,   8.46909523,  -1.78831661
    673,  -10.3678045,     -1.70971
    674,   10.3678045,      1.70971
    675,  -10.2920256,   1.76136255
    676,   10.2920256,  -1.76136255
    677,  -27.2265663,   1.69892764
    678,   27.2265663,  -1.69892764
    679,  -23.0480633,   2.57343388
    680,   23.0480633,   -2.5734334
    681,  -22.9682121,  -2.61137366
    682,   22.9682121,   2.61137366
    683,  -21.2728176,  -2.87426424
    684,   21.2728176,   2.87426424
    685,  -4.25558901,    2.5782249
    686,   4.25558901,   -2.5782249
    687,   4.21533346, -0.843480945
    688,  -4.21533346,  0.843480945
    689,   19.1767483, -0.877046049
    690,   10.8430481,  0.843155265
    691,  -10.8430481, -0.843155265
    692,  -19.1767483,  0.877046049
    693,  -4.30028963,  -2.66022754
    694,   4.30028963,   2.66022754
    695,  -27.2608852,  -1.61718893
    696,   27.2608852,   1.61718893
    697,  -11.6442642,    2.5769763
    698,   11.6442642,   -2.5769763
    699,   12.1856041,   1.99919021
    700,  -12.1856041,  -1.99919021
    701,  -21.3404503,  -2.09134579
    702,   21.3404503,   2.09134579
    703,  -20.5742321,   -2.5225687
    704,   20.5742321,    2.5225687
    705,  -4.64367199,  -1.95986819
    706,   4.64367199,   1.95986819
    707,  -3.40148306,  -2.61743474
    708,   3.40148306,   2.61743474
    709,   26.7196636, -0.906173348
    710,  -26.7196636,  0.906173348
    711,   23.4992733,  -1.71618414
    712,  -23.3894711,  -1.74887156
    713,   23.3894711,   1.74887156
    714,  -23.4992733,    1.7161845
    715,    27.665144,   0.74147743
    716,   -27.665144,  -0.74147743
    717,  -12.0815105,   1.79594064
    718,   12.0815105,  -1.79594064
    719,  -25.7940884,  0.917503774
    720,   25.7940884, -0.917503715
    721,  -7.06338596,  0.952004373
    722,   7.06338596, -0.952004373
    723,  -9.89414215, -0.824855864
    724,   9.89414215,  0.824855864
    725,  -8.93236637,  0.938833356
    726,   8.93236637, -0.938833356
    727,  -4.69614077,   1.72654855
    728,   4.69614077,  -1.72654855
    729,  -9.85676384,  0.911094725
    730,   9.85676384, -0.911094725
    731,  -8.00439072,  0.945879877
    732,   8.00439072, -0.945879877
    733,  -10.8001614,  0.915105224
    734,   10.8001614, -0.915105224
    735,    6.1268239, -0.929425478
    736,   -6.1268239,  0.929425478
    737,   24.8627605, -0.892454922
    738,  -24.8627605,  0.892455101
    739,   19.6742611,  -1.69276202
    740,  -19.6742611,    1.6927619
    741,  -26.7260246, -0.786567628
    742,   26.7260246,  0.786567628
    743,   10.3704929, -0.0408376642
    744,  -10.3704929, 0.0408376642
    745,  -4.73338556, 0.00569180492
    746,   4.73338556, -0.00569180492
    747,  -19.6595898, -0.0327719338
    748,   19.6595898, 0.0327719375
    749,  -27.6452541,  0.832315683
    750,   27.6452541, -0.832315683
    751,  -25.3019829, 0.0345604941
    752,   25.3019829, -0.0345604308
    753,  -6.58616734, 0.0790375769
    754,   6.58616734, -0.0790375769
    755,  -8.47453785, 0.0810277462
    756,   8.47453785, -0.0810277462
    757,  -19.7347412,  -1.92451882
    758,   19.7347412,   1.92451882
    759,  -21.2723866,  -1.03107083
    760,   21.2723866,   1.03107095
    761,   19.7565212,   3.01966166
    762,  -19.7565212,  -3.01966166
    763,  -4.42157125,  -1.03257573
    764,   4.42157125,   1.03257573
    765,  -2.94823647,  -1.82207918
    766,   2.94823647,   1.82207918
    767,   23.0143967, -0.842824578
    768,  -22.9461384, -0.850941539
    769,   22.9461384,  0.850941718
    770,  -23.0143967,  0.842824757
    771,  -8.94938374, -0.803830802
    772,   8.94938374,  0.803830802
    773,  -11.7126532,   1.01541126
    774,   11.7126532,  -1.01541126
    775,   5.18452787, -0.890034616
    776,  -5.18452787,  0.890034616
    777,   23.9385033, -0.864461005
    778,  -23.9385033,  0.864461243
    779,    20.160368, -0.830409884
    780,   -20.160368,  0.830409765
    781,   19.2066593,  -2.54136229
    782,  -19.2066593,   2.54136229
    783,  -25.7734871, -0.824291885
    784,   25.7734871,  0.824291885
    785,   19.2007999,  0.960965335
    786,  -19.2007999, -0.960965276
    787,  -28.4334736,  0.696038783
    788,   28.4334736, -0.696038783
    789,  -23.8881226, -0.872968018
    790,   23.8881226,  0.872968078
    791,  -27.1759377, 0.0545831434
    792,   27.1759377, -0.0545831397
    793,  -23.4523354, -0.00339407683
    794,   23.4523354, 0.00339422631
    795,   18.2794361,   1.07736945
    796,  -18.2794361,  -1.07736945
    797,   21.1282845, -0.823025286
    798,  -21.1282845,  0.823025227
    799,   20.1934509,  0.951769352
    800,  -20.1934509, -0.951769292
    801,   8.47731113,   1.67450416
    802,  -8.47731113,  -1.67450416
    803,  -3.35245752,  -1.06276977
    804,   3.35245752,   1.06276977
    805,  -22.1429977, -0.721399724
    806,   22.1429977,  0.721399844
    807,    22.075552, -0.834734976
    808,   -22.075552,  0.834735036
    809,   18.2488461,  -2.57765841
    810,  -18.2488461,   2.57765841
    811,  -20.1479683,   2.52992487
    812,   20.1479683,  -2.52992511
    813,  -25.3269615,   -1.7084887
    814,   25.3269615,    1.7084887
    815,   -28.448782, -0.632480681
    816,    28.448782,  0.632480681
    817,  -24.8365822, -0.852630675
    818,   24.8365803,  0.852630734
    819,   5.27558613,  0.677165151
    820,  -5.27558613, -0.677165151
    821,  -7.04835463, -0.792908311
    822,   7.04835463,  0.792908311
    823,   8.00198269,  0.794351697
    824,  -8.00198269, -0.794351697
    825,  -21.6419086, -0.0262380894
    826,   21.6419086, 0.0262381565
    827,   21.5918941,  -1.69052529
    828,  -21.5918941,   1.69052529
    829,  -19.6796055,   3.23963618
    830,   19.6796055,  -3.23963618
    831,   17.8460922,  -1.78249454
    832,  -17.8460922,   1.78249454
    833,   6.09894514,  0.773712218
    834,  -6.09894514, -0.773712218
    835,  -21.1186123,   2.56049013
    836,   21.1186123,  -2.56049013
    837,  -19.0519428,   -2.5602119
    838,   19.0519428,    2.5602119
    839,  -2.83117366,   2.00453115
    840,   2.83117366,  -2.00453115
    841,   6.55524111,   1.66617966
    842,  -6.55524111,  -1.66617966
    843,  -18.2547035,  -2.55975699
    844,   18.2547035,   2.55975699
    845,  -18.0148468,  -1.83364511
    846,   18.0148468,   1.83364511
*Element, type=CPS3
   1, 527, 358,   1
   2, 799, 785, 748
   3, 826, 806, 760
   4, 769, 713, 216
   5, 818, 752, 784
   6, 792, 715, 742
   7, 816, 219, 715
   8, 500, 499, 111
   9, 510, 500, 337
  10, 599, 500, 510
  11, 493, 338, 365
  12, 381, 260, 366
  13, 366, 260,  38
  14, 382,  38, 261
  15, 367, 261,  39
  16, 663, 541, 170
  17, 784, 752, 125
  18, 596, 342, 258
  19,  34, 116,  35
  20, 619, 342, 596
  21, 513, 116, 342
  22, 352,  35, 116
  23, 523, 357,  25
  24, 532,  35, 352
  25, 686, 560, 622
  26, 775, 746, 687
  27, 764, 165, 706
  28, 623, 180, 561
  29, 448, 384, 181
  30, 561, 383, 448
  31, 384,  50, 274
  32, 551, 384, 449
  33, 766, 708, 516
  34,  25, 167,  26
  35, 357, 167,  25
  36, 523,  25,  36
  37, 764, 160, 746
  38, 571, 410, 447
  39, 581, 409, 446
  40, 584, 408, 445
  41, 444, 407, 269
  42, 443, 406, 268
  43, 379, 378, 267
  44, 539, 370, 174
  45, 369, 172, 364
  46, 441, 404, 263
  47, 368, 262,  40
  48, 385,  39, 262
  49, 526, 361,   7
  50, 529,   5, 354
  51, 529, 156, 526
  52, 644, 584, 178
  53, 641, 178, 581
  54, 651, 581, 179
  55, 635, 179, 571
  56, 659, 571, 180
  57, 833, 754, 822
  58, 735, 670, 722
  59, 622, 560, 135
  60, 386,  93, 319
  61, 479, 386, 319
  62, 387,  94, 320
  63, 480, 387, 320
  64, 653, 580, 640
  65, 726, 672, 136
  66, 823, 772, 801
  67, 823, 801, 164
  68, 822, 754, 158
  69, 699, 161, 512
  70, 637, 512, 575
  71, 699, 637, 162
  72, 649, 177, 584
  73, 598, 345, 253
  74, 347,   3,   2
  75, 587, 347, 174
  76, 519, 347, 213
  77, 358, 213,   1
  78, 795, 785, 214
  79,   2,   1, 213
  80, 525, 359,  13
  81, 733, 675, 207
  82, 725, 671, 208
  83, 721, 669, 209
  84, 776, 745, 688
  85, 607, 355, 211
  86, 212,  29,  28
  87, 595, 346, 257
  88, 389, 276, 277
  89, 389, 388, 276
  90, 390,  53, 278
  91, 452, 390, 278
  92, 839, 613, 211
  93, 839, 212, 514
  94,  22, 114,  23
  95, 597, 343, 256
  96, 597, 566, 343
  97, 469, 393, 308
  98, 391,  84, 309
  99, 470, 391, 309
 100, 392,  85, 310
 101, 583, 392, 471
 102, 642, 148, 582
 103, 824, 802, 151
 104, 824, 771, 802
 105, 723, 691, 673
 106, 691, 610, 155
 107, 638, 511, 576
 108, 650, 150, 583
 109, 643, 583, 148
 110, 348,  21,  20
 111, 588, 348, 231
 112, 377, 376,  82
 113, 380, 377, 307
 114, 393, 380,  83
 115, 520, 348, 240
 116, 360, 240,  19
 117, 528, 360,  19
 118, 530,  17, 356
 119, 356,  17, 205
 120, 832, 205, 521
 121,  17,  16, 205
 122, 341, 205,  16
 123, 548, 460, 193
 124, 461, 394, 287
 125, 461, 193, 394
 126, 395,  63, 289
 127, 463, 395, 289
 128, 603, 543, 195
 129, 825, 798, 808
 130, 759, 243, 701
 131, 605, 228, 545
 132, 467, 303,  80
 133, 467, 396, 303
 134, 363,  80, 304
 135, 375, 229, 363
 136, 762, 757, 703
 137, 800, 248, 759
 138, 780, 692, 740
 139, 829, 782, 193
 140, 811, 203, 740
 141, 835, 543, 603
 142, 589, 557, 192
 143, 459, 398, 192
 144, 557, 397, 459
 145, 398,  61, 286
 146, 589, 341, 255
 147, 349,  15,  14
 148, 517, 349, 206
 149, 359, 206,  13
 150, 773, 359, 525
 151,  14,  13, 206
 152, 339,  33,  32
 153, 593, 339, 113
 154, 476, 400, 141
 155, 476, 113, 399
 156, 400,  91, 316
 157, 401, 400, 316
 158, 342, 116,  34
 159, 515, 339, 145
 160, 765, 707, 515
 161, 624, 144, 562
 162, 636, 146, 572
 163, 652, 582, 146
 164, 582, 402, 472
 165, 583, 471, 148
 166, 524, 362,  31
 167, 531,  29, 355
 168, 620, 346, 595
 169, 340,  27,  26
 170, 516, 340, 167
 171, 594, 182, 450
 172, 594, 450, 183
 173, 551, 449, 182
 174, 365, 338, 259
 175, 404,  40, 263
 176, 364,  41, 264
 177, 405,  42, 266
 178, 378, 370,  43
 179, 406, 379,  44
 180, 407,  45, 269
 181, 408,  46, 270
 182, 409,  47, 271
 183, 410,  48, 272
 184, 411,  54, 279
 185, 453, 411, 279
 186, 621, 559, 186
 187, 688, 220, 607
 188, 412,  55, 280
 189, 454, 412, 280
 190, 633, 569, 187
 191, 736, 669, 721
 192, 413,  56, 281
 193, 455, 414, 188
 194, 639, 579, 188
 195, 731, 671, 725
 196, 414,  57, 282
 197, 585, 414, 456
 198, 647, 646, 585
 199, 729, 208, 675
 200, 415,  58, 283
 201, 577, 415, 457
 202, 717, 697, 517
 203, 697, 577, 517
 204, 416,  59, 284
 205, 567, 416, 458
 206, 349,  14, 206
 207, 417,  64, 290
 208, 464, 417, 290
 209, 615, 553, 196
 210, 778, 714, 201
 211, 789, 712, 768
 212, 617, 227, 538
 213, 418, 302, 374
 214, 374, 302,  79
 215, 419,  65, 291
 216, 465, 419, 291
 217, 629, 563, 197
 218, 719, 667, 200
 219, 783, 751, 251
 220, 631, 226, 542
 221, 420, 301, 373
 222, 373, 301,  78
 223, 421,  66, 292
 224, 466, 421, 292
 225, 625, 573, 198
 226, 749, 710, 677
 227, 741, 695, 245
 228, 627, 600, 225
 229, 422, 300, 372
 230, 372, 300,  77
 231, 423,  67, 293
 232, 503, 294,  70
 233, 601, 497, 504
 234, 787, 749, 199
 235, 502, 501,  73
 236, 600, 502, 506
 237, 371, 299,  76
 238, 494, 298, 371
 239, 424,  81, 306
 240, 540, 376, 231
 241, 843, 241, 837
 242, 843, 540, 520
 243, 425,  87, 312
 244, 572, 425, 473
 245, 660, 572, 144
 246, 426,  88, 313
 247, 562, 426, 474
 248, 693, 562, 143
 249, 427,  89, 314
 250, 552, 475, 113
 251, 765, 145, 362
 252, 428,  92, 318
 253, 478, 428, 318
 254, 614, 513, 550
 255, 429,  95, 321
 256, 481, 430, 131
 257, 645, 131, 586
 258, 734, 676, 134
 259, 690, 608, 162
 260, 724, 690, 674
 261, 430,  96, 322
 262, 586, 430, 482
 263, 718, 698, 518
 264,   7, 132,   8
 265, 361, 132,   7
 266, 526,   7,   6
 267, 431,  97, 323
 268, 578, 431, 483
 269, 518, 350, 132
 270, 718, 132, 361
 271, 432,  98, 324
 272, 568, 432, 484
 273, 350,   9,   8
 274, 350,   8, 132
 275, 433,  99, 325
 276, 558, 433, 485
 277, 590, 344, 254
 278, 590, 558, 233
 279, 434, 100, 326
 280, 547, 434, 486
 281, 781, 739, 118
 282, 779, 748, 689
 283, 689, 129, 612
 284, 533, 129, 527
 285, 533,  11, 351
 286, 435, 101, 327
 287, 487, 234, 435
 288, 836, 604, 827
 289, 826, 797, 807
 290, 797, 128, 779
 291, 436, 102, 329
 292, 489, 436, 329
 293, 680, 554, 616
 294, 777, 711, 121
 295, 767, 120, 711
 296, 437, 103, 330
 297, 490, 437, 330
 298, 665, 564, 630
 299, 720, 668, 122
 300, 737, 668, 720
 301, 438, 104, 331
 302, 491, 438, 331
 303, 657, 238, 574
 304, 750, 709, 678
 305, 709, 122, 678
 306, 439, 105, 332
 307, 492, 439, 332
 308, 508, 495, 335
 309, 602, 495, 508
 310, 496, 109, 336
 311, 508, 496, 123
 312, 440, 106, 333
 313, 507, 334, 108
 314, 343, 114,  22
 315, 511, 114, 343
 316, 353,  23, 114
 317, 534,  23, 353
 318, 831, 117, 522
 319, 344, 117,  10
 320, 547, 522, 233
 321, 809, 781, 118
 322, 648, 645, 586
 323, 634, 570, 133
 324, 661, 570, 634
 325, 640, 580, 131
 326, 730, 136, 676
 327, 722, 670, 138
 328, 732, 672, 726
 329, 728, 687, 142
 330, 840, 116, 513
 331, 708, 551, 516
 332, 694, 561, 181
 333, 628, 599, 168
 334, 655, 628, 535
 335, 742, 715, 696
 336, 632, 169, 541
 337, 618, 170, 536
 338, 682, 536, 171
 339, 790, 713, 769
 340, 606, 171, 546
 341, 702, 606, 684
 342, 760, 216, 702
 343, 761, 704, 172
 344, 761, 758, 704
 345, 799, 758, 785
 346, 519, 213, 358
 347, 844, 539, 519
 348, 598, 565, 345
 349, 345, 161,   4
 350,   5,   4, 161
 351, 346, 212,  28
 352, 514, 212, 346
 353, 685, 559, 621
 354, 662, 569, 633
 355, 654, 579, 639
 356, 646, 188, 585
 357, 832, 810, 204
 358, 810, 782, 204
 359, 679, 553, 615
 360, 666, 563, 629
 361, 658, 197, 573
 362, 504, 497, 295
 363, 498,  71, 296
 364, 710, 200, 677
 365, 738, 667, 719
 366, 770, 202, 714
 367, 780, 747, 692
 368, 798, 248, 780
 369, 700, 114, 511
 370, 834, 753, 821
 371, 763, 149, 705
 372, 763, 220, 745
 373, 765, 147, 707
 374, 362, 145,  31
 375,  31, 145,  32
 376, 821, 753, 222
 377, 701, 605, 683
 378, 703, 242, 701
 379, 812, 119, 739
 380, 604, 544, 236
 381, 616, 554, 237
 382, 630, 564, 238
 383, 626, 574, 239
 384, 825, 805, 759
 385, 800, 757, 786
 386, 681, 538, 228
 387, 664, 542, 227
 388, 656, 627, 537
 389, 506, 502, 297
 390, 768, 712, 243
 391, 817, 751, 783
 392, 791, 716, 741
 393, 815, 505, 501
 394, 796, 786, 241
 395, 117,  11,  10
 396, 240,  20,  19
 397, 587, 253,   3
 398, 592, 590,   9
 399, 591, 589,  15
 400, 588, 256,  21
 401, 594, 595,  27
 402, 593, 596,  33
 403, 381, 365,  37
 404, 382, 366,  38
 405, 385, 367,  39
 406, 404, 368,  40
 407, 441,  41, 364
 408, 442, 369, 265
 409, 442, 265,  42
 410, 370, 266,  43
 411, 379, 267,  44
 412, 443, 268,  45
 413, 444, 269,  46
 414, 445,  47, 409
 415, 446,  48, 410
 416, 447,  49, 383
 417, 448,  50, 384
 418, 449,  51, 403
 419, 450,  52, 388
 420, 620, 388, 389
 421, 451, 277,  53
 422, 452, 278,  54
 423, 453, 279,  55
 424, 454, 280,  56
 425, 455,  57, 414
 426, 456,  58, 415
 427, 457,  59, 416
 428, 458,  60, 397
 429, 459,  61, 398
 430, 460,  62, 394
 431, 462, 461, 288
 432, 462, 288,  63
 433, 463, 289,  64
 434, 464, 290,  65
 435, 465, 291,  66
 436, 466, 292,  67
 437, 293,  69, 294
 438, 503, 497, 198
 439, 504, 295,  71
 440, 505, 296,  72
 441, 506,  74, 494
 442, 298,  75, 299
 443, 422, 371,  76
 444, 420, 372,  77
 445, 418, 373,  78
 446, 396, 374,  79
 447, 467,  80, 363
 448, 468, 375, 305
 449, 468, 305,  81
 450, 376, 306,  82
 451, 380, 307,  83
 452, 469, 308,  84
 453, 470, 309,  85
 454, 471,  86, 402
 455, 472,  87, 425
 456, 473,  88, 426
 457, 474,  89, 427
 458, 475,  90, 399
 459, 476,  91, 400
 460, 619, 400, 401
 461, 477, 317,  92
 462, 478, 318,  93
 463, 479, 319,  94
 464, 480, 320,  95
 465, 481,  96, 430
 466, 482,  97, 431
 467, 483,  98, 432
 468, 484,  99, 433
 469, 485, 100, 434
 470, 486, 101, 435
 471, 488, 487, 328
 472, 488, 328, 102
 473, 489, 329, 103
 474, 490, 330, 104
 475, 491, 331, 105
 476, 492, 332, 106
 477, 333, 107, 334
 478, 507, 495, 239
 479, 508, 335, 109
 480, 509, 336, 110
 481, 510, 112, 493
 482, 338,  68, 259
 483, 339,  32, 145
 484, 593, 113, 476
 485, 594, 340, 182
 486, 340,  26, 167
 487, 521, 341, 192
 488, 341,  16, 255
 489, 513, 342, 139
 490, 342,  34, 258
 491, 511, 343, 152
 492, 343,  22, 256
 493, 522, 344, 233
 494, 344,  10, 254
 495, 512, 345, 176
 496, 345,   4, 253
 497, 514, 346, 184
 498, 346,  28, 257
 499, 347,   2, 213
 500, 587, 174, 555
 501, 348,  20, 240
 502, 588, 231, 556
 503, 567, 349, 190
 504, 591, 349, 567
 505, 568, 350, 115
 506, 592, 350, 568
 507, 351,  11, 117
 508, 831, 612, 351
 509, 609, 352, 142
 510, 532, 160, 523
 511, 610, 353, 155
 512, 534, 224, 525
 513, 354,   5, 161
 514, 608, 354, 162
 515, 531, 220, 524
 516, 355,  29, 212
 517, 832, 611, 356
 518, 530, 247, 528
 519, 804, 357, 523
 520, 766, 166, 708
 521, 846, 844, 519
 522, 527,   1,  12
 523, 717, 207, 697
 524, 525,  13,  24
 525, 845, 843, 520
 526, 528,  19,  18
 527, 774, 361, 526
 528, 718, 134, 698
 529, 524,  31,  30
 530, 803, 362, 524
 531, 375, 363, 304
 532, 545, 396, 467
 533, 369, 364, 264
 534, 546, 404, 441
 535, 365, 259,  37
 536, 493, 365, 168
 537, 535, 366, 169
 538, 535, 381, 366
 539, 541, 367, 170
 540, 541, 382, 367
 541, 536, 368, 171
 542, 536, 385, 368
 543, 369, 264, 265
 544, 761, 369, 173
 545, 378,  43, 267
 546, 539, 405, 370
 547, 494, 371, 225
 548, 371, 298, 299
 549, 537, 372, 226
 550, 537, 422, 372
 551, 542, 373, 227
 552, 542, 420, 373
 553, 538, 374, 228
 554, 538, 418, 374
 555, 375, 304, 305
 556, 762, 375, 230
 557, 377,  82, 307
 558, 540, 424, 376
 559, 556, 377, 380
 560, 377, 231, 376
 561, 555, 378, 379
 562, 378, 174, 370
 563, 406,  44, 268
 564, 555, 379, 175
 565, 393,  83, 308
 566, 556, 380, 154
 567, 381, 168, 365
 568, 381,  37, 260
 569, 382, 261, 367
 570, 382, 169, 366
 571, 571, 447, 180
 572, 383,  49, 273
 573, 449, 403, 182
 574, 561, 448, 181
 575, 385, 262, 368
 576, 385, 170, 367
 577, 560, 386, 479
 578, 478, 386, 137
 579, 570, 387, 480
 580, 479, 387, 135
 581, 450, 182, 403
 582, 388,  52, 276
 583, 451, 389, 277
 584, 620, 595, 183
 585, 549, 390, 452
 586, 451, 390, 184
 587, 576, 391, 470
 588, 469, 391, 152
 589, 471, 402, 148
 590, 470, 392, 150
 591, 566, 393, 469
 592, 393, 154, 380
 593, 548, 398, 460
 594, 394,  62, 287
 595, 543, 395, 463
 596, 462, 395, 194
 597, 396, 228, 374
 598, 396,  79, 303
 599, 567, 458, 191
 600, 397,  60, 285
 601, 460, 398, 286
 602, 557, 459, 192
 603, 552, 427, 475
 604, 399,  90, 315
 605, 401, 316, 317
 606, 593, 476, 141
 607, 477, 401, 317
 608, 619, 596, 141
 609, 402,  86, 311
 610, 472, 425, 146
 611, 403,  51, 275
 612, 450, 403, 275
 613, 441, 263,  41
 614, 404, 171, 368
 615, 442, 405, 173
 616, 405, 266, 370
 617, 565, 406, 443
 618, 406, 175, 379
 619, 575, 407, 444
 620, 443, 407, 176
 621, 445, 409, 178
 622, 444, 408, 177
 623, 446, 410, 179
 624, 584, 445, 178
 625, 447, 410, 272
 626, 581, 446, 179
 627, 559, 411, 453
 628, 452, 411, 185
 629, 569, 412, 454
 630, 453, 412, 186
 631, 579, 413, 455
 632, 454, 413, 187
 633, 456, 415, 189
 634, 579, 455, 188
 635, 457, 416, 190
 636, 585, 456, 189
 637, 458, 416, 284
 638, 577, 457, 190
 639, 553, 417, 464
 640, 463, 417, 195
 641, 418, 227, 373
 642, 418,  78, 302
 643, 563, 419, 465
 644, 464, 419, 196
 645, 420, 226, 372
 646, 420,  77, 301
 647, 573, 421, 466
 648, 465, 421, 197
 649, 422, 225, 371
 650, 422,  76, 300
 651, 466, 423, 198
 652, 423, 293, 294
 653, 468, 424, 230
 654, 424, 306, 376
 655, 473, 426, 144
 656, 582, 472, 146
 657, 474, 427, 143
 658, 572, 473, 144
 659, 475, 427, 314
 660, 562, 474, 143
 661, 550, 428, 478
 662, 477, 428, 139
 663, 580, 429, 481
 664, 480, 429, 133
 665, 482, 431, 130
 666, 580, 481, 131
 667, 483, 432, 115
 668, 586, 482, 130
 669, 484, 433, 232
 670, 578, 483, 115
 671, 485, 434, 233
 672, 568, 484, 232
 673, 486, 435, 234
 674, 558, 485, 233
 675, 487, 435, 327
 676, 547, 486, 234
 677, 544, 436, 489
 678, 488, 436, 235
 679, 554, 437, 490
 680, 489, 437, 236
 681, 564, 438, 491
 682, 490, 438, 237
 683, 574, 439, 492
 684, 491, 439, 238
 685, 492, 440, 239
 686, 440, 333, 334
 687, 441, 364, 172
 688, 546, 441, 172
 689, 442,  42, 405
 690, 442, 173, 369
 691, 443,  45, 407
 692, 565, 443, 176
 693, 444,  46, 408
 694, 575, 444, 177
 695, 445, 408, 270
 696, 445, 270,  47
 697, 446, 409, 271
 698, 446, 271,  48
 699, 447, 272,  49
 700, 447, 383, 180
 701, 448, 383, 273
 702, 448, 273,  50
 703, 449, 384, 274
 704, 449, 274,  51
 705, 450, 275,  52
 706, 450, 388, 183
 707, 451,  53, 390
 708, 620, 451, 184
 709, 452,  54, 411
 710, 549, 452, 185
 711, 453,  55, 412
 712, 559, 453, 186
 713, 454,  56, 413
 714, 569, 454, 187
 715, 455, 413, 281
 716, 455, 281,  57
 717, 456, 414, 282
 718, 456, 282,  58
 719, 457, 415, 283
 720, 457, 283,  59
 721, 458, 284,  60
 722, 458, 397, 191
 723, 459, 397, 285
 724, 459, 285,  61
 725, 460, 286,  62
 726, 460, 394, 193
 727, 461, 287, 288
 728, 829, 461, 194
 729, 462,  63, 395
 730, 462, 194, 461
 731, 463,  64, 417
 732, 543, 463, 195
 733, 464,  65, 419
 734, 553, 464, 196
 735, 465,  66, 421
 736, 563, 465, 197
 737, 466,  67, 423
 738, 573, 466, 198
 739, 467, 363, 229
 740, 545, 467, 229
 741, 468,  81, 424
 742, 468, 230, 375
 743, 469,  84, 391
 744, 566, 469, 152
 745, 470,  85, 392
 746, 576, 470, 150
 747, 471, 392, 310
 748, 471, 310,  86
 749, 472, 402, 311
 750, 472, 311,  87
 751, 473, 425, 312
 752, 473, 312,  88
 753, 474, 426, 313
 754, 474, 313,  89
 755, 475, 314,  90
 756, 475, 399, 113
 757, 476, 399, 315
 758, 476, 315,  91
 759, 477,  92, 428
 760, 619, 477, 139
 761, 478,  93, 386
 762, 550, 478, 137
 763, 479,  94, 387
 764, 560, 479, 135
 765, 480,  95, 429
 766, 570, 480, 133
 767, 481, 429, 321
 768, 481, 321,  96
 769, 482, 430, 322
 770, 482, 322,  97
 771, 483, 431, 323
 772, 483, 323,  98
 773, 484, 432, 324
 774, 484, 324,  99
 775, 485, 433, 325
 776, 485, 325, 100
 777, 486, 434, 326
 778, 486, 326, 101
 779, 487, 327, 328
 780, 830, 487, 235
 781, 488, 102, 436
 782, 488, 235, 487
 783, 489, 103, 437
 784, 544, 489, 236
 785, 490, 104, 438
 786, 554, 490, 237
 787, 491, 105, 439
 788, 564, 491, 238
 789, 492, 106, 440
 790, 574, 492, 239
 791, 599, 510, 168
 792, 493, 112, 338
 793, 600, 506, 225
 794, 494,  74, 298
 795, 507, 239, 440
 796, 495, 108, 335
 797, 509, 496, 336
 798, 788, 750, 123
 799, 503, 198, 423
 800, 497,  70, 295
 801, 504, 498, 199
 802, 505, 498, 296
 803, 816, 509, 499
 804, 499, 110, 111
 805, 500, 219, 499
 806, 500, 111, 337
 807, 501,  72,  73
 808, 815, 246, 716
 809, 502, 246, 501
 810, 502,  73, 297
 811, 503, 423, 294
 812, 503,  70, 497
 813, 504,  71, 498
 814, 601, 504, 199
 815, 505,  72, 501
 816, 787, 505, 252
 817, 506, 297,  74
 818, 506, 494, 225
 819, 507, 440, 334
 820, 507, 108, 495
 821, 508, 109, 496
 822, 602, 508, 123
 823, 509, 110, 499
 824, 788, 509, 124
 825, 510, 337, 112
 826, 510, 493, 168
 827, 576, 511, 152
 828, 700, 638, 155
 829, 512, 161, 345
 830, 575, 512, 176
 831, 550, 513, 139
 832, 840, 614, 142
 833, 549, 514, 184
 834, 613, 514, 549
 835, 707, 552, 515
 836, 515, 113, 339
 837, 516, 182, 340
 838, 766, 167, 357
 839, 517, 190, 349
 840, 717, 206, 359
 841, 698, 578, 518
 842, 518, 115, 350
 843, 844, 214, 838
 844, 519, 174, 347
 845, 520, 231, 348
 846, 520, 240, 360
 847, 521, 205, 341
 848, 548, 521, 192
 849, 831, 809, 118
 850, 522, 117, 344
 851, 532, 523,  36
 852, 804, 523, 160
 853, 531, 524,  30
 854, 803, 524, 220
 855, 534, 525,  24
 856, 773, 525, 224
 857, 529, 526,   6
 858, 774, 526, 156
 859, 533, 527,  12
 860, 795, 129, 785
 861, 530, 528,  18
 862, 796, 247, 786
 863, 529,   6,   5
 864, 608, 529, 354
 865, 530,  18,  17
 866, 611, 530, 356
 867, 531,  30,  29
 868, 607, 531, 355
 869, 532,  36,  35
 870, 609, 532, 352
 871, 533,  12,  11
 872, 612, 533, 351
 873, 534,  24,  23
 874, 610, 534, 353
 875, 655, 169, 632
 876, 535, 168, 381
 877, 682, 618, 536
 878, 536, 170, 385
 879, 656, 226, 631
 880, 537, 225, 422
 881, 681, 617, 538
 882, 538, 227, 418
 883, 539, 174, 519
 884, 539, 173, 405
 885, 540, 231, 520
 886, 540, 230, 424
 887, 663, 632, 541
 888, 541, 169, 382
 889, 664, 631, 542
 890, 542, 226, 420
 891, 679, 603, 195
 892, 543, 194, 395
 893, 680, 604, 236
 894, 544, 235, 436
 895, 683, 545, 229
 896, 545, 228, 396
 897, 684, 546, 172
 898, 546, 171, 404
 899, 809, 547, 234
 900, 547, 233, 434
 901, 810, 548, 193
 902, 548, 192, 398
 903, 613, 549, 185
 904, 549, 184, 390
 905, 614, 550, 137
 906, 550, 139, 428
 907, 551, 182, 516
 908, 551, 181, 384
 909, 552, 113, 515
 910, 552, 143, 427
 911, 666, 615, 196
 912, 553, 195, 417
 913, 665, 616, 237
 914, 554, 236, 437
 915, 587, 555, 175
 916, 555, 174, 378
 917, 588, 556, 154
 918, 556, 231, 377
 919, 589, 192, 341
 920, 557, 191, 397
 921, 590, 233, 344
 922, 558, 232, 433
 923, 662, 621, 186
 924, 559, 185, 411
 925, 661, 622, 135
 926, 560, 137, 386
 927, 694, 623, 561
 928, 561, 180, 383
 929, 693, 624, 562
 930, 562, 144, 426
 931, 658, 629, 197
 932, 563, 196, 419
 933, 657, 630, 238
 934, 564, 237, 438
 935, 565, 176, 345
 936, 565, 175, 406
 937, 566, 152, 343
 938, 566, 154, 393
 939, 591, 567, 191
 940, 567, 190, 416
 941, 592, 568, 232
 942, 568, 115, 432
 943, 654, 633, 187
 944, 569, 186, 412
 945, 653, 634, 133
 946, 570, 135, 387
 947, 659, 635, 571
 948, 571, 179, 410
 949, 660, 636, 572
 950, 572, 146, 425
 951, 625, 198, 601
 952, 573, 197, 421
 953, 626, 239, 602
 954, 574, 238, 439
 955, 637, 575, 177
 956, 575, 176, 407
 957, 638, 576, 150
 958, 576, 152, 391
 959, 577, 190, 517
 960, 577, 189, 415
 961, 578, 115, 518
 962, 578, 130, 431
 963, 646, 639, 188
 964, 579, 187, 413
 965, 645, 640, 131
 966, 580, 133, 429
 967, 651, 641, 581
 968, 581, 178, 409
 969, 652, 642, 582
 970, 582, 148, 402
 971, 643, 148, 642
 972, 583, 150, 392
 973, 644, 178, 641
 974, 584, 177, 408
 975, 697, 647, 189
 976, 585, 188, 414
 977, 698, 648, 130
 978, 586, 131, 430
 979, 598, 587, 175
 980, 587,   3, 347
 981, 597, 588, 154
 982, 588,  21, 348
 983, 589, 255,  15
 984, 589, 191, 557
 985, 590, 254,   9
 986, 590, 232, 558
 987, 591, 191, 589
 988, 591,  15, 349
 989, 592, 232, 590
 990, 592,   9, 350
 991, 596, 593, 141
 992, 593,  33, 339
 993, 595, 594, 183
 994, 594,  27, 340
 995,  27, 595, 257
 996, 620, 183, 388
 997,  33, 596, 258
 998, 619, 141, 400
 999, 597, 256, 588
1000, 597, 154, 566
1001, 598, 253, 587
1002, 598, 175, 565
1003, 628, 168, 535
1004, 599, 219, 500
1005, 627, 225, 537
1006, 600, 246, 502
1007, 625, 601, 199
1008, 601, 198, 497
1009, 626, 602, 123
1010, 602, 239, 495
1011, 828, 603, 202
1012, 835, 603, 828
1013, 827, 604, 120
1014, 836, 544, 604
1015, 683, 605, 545
1016, 681, 605, 243
1017, 684, 606, 546
1018, 682, 606, 216
1019, 688, 607, 211
1020, 607, 220, 531
1021, 690, 162, 674
1022, 608, 156, 529
1023, 687, 609, 142
1024, 609, 160, 532
1025, 691, 155, 673
1026, 610, 224, 534
1027, 692, 611, 204
1028, 611, 247, 530
1029, 689, 612, 118
1030, 612, 129, 533
1031, 685, 185, 559
1032, 839, 211, 355
1033, 686, 137, 560
1034, 840, 142, 352
1035, 714, 615, 201
1036, 714, 679, 615
1037, 711, 616, 121
1038, 711, 680, 616
1039, 712, 617, 681
1040, 664, 617, 244
1041, 713, 618, 682
1042, 663, 618, 217
1043, 619, 401, 477
1044, 619, 139, 342
1045, 620, 389, 451
1046, 620, 184, 346
1047, 727, 685, 621
1048, 727, 621, 210
1049, 728, 686, 622
1050, 728, 622, 140
1051, 706, 623, 694
1052, 659, 623, 165
1053, 705, 624, 693
1054, 660, 624, 149
1055, 677, 625, 199
1056, 677, 658, 625
1057, 678, 626, 123
1058, 678, 657, 626
1059, 695, 627, 656
1060, 627, 246, 600
1061, 696, 628, 655
1062, 628, 219, 599
1063, 667, 666, 629
1064, 667, 629, 200
1065, 668, 665, 630
1066, 668, 630, 122
1067, 813, 631, 664
1068, 656, 631, 245
1069, 814, 632, 663
1070, 655, 632, 218
1071, 669, 662, 633
1072, 669, 633, 209
1073, 670, 661, 634
1074, 670, 634, 138
1075, 841, 635, 659
1076, 651, 635, 164
1077, 842, 636, 660
1078, 652, 636, 151
1079, 649, 637, 177
1080, 699, 162, 354
1081, 650, 638, 150
1082, 700, 155, 353
1083, 671, 654, 639
1084, 671, 639, 208
1085, 672, 653, 640
1086, 672, 640, 136
1087, 801, 641, 651
1088, 644, 641, 163
1089, 802, 642, 652
1090, 643, 642, 153
1091, 673, 643, 153
1092, 673, 650, 643
1093, 674, 644, 163
1094, 674, 649, 644
1095, 676, 645, 648
1096, 645, 136, 640
1097, 675, 646, 647
1098, 646, 208, 639
1099, 647, 585, 189
1100, 675, 647, 207
1101, 648, 586, 130
1102, 676, 648, 134
1103, 649, 162, 637
1104, 649, 584, 644
1105, 650, 155, 638
1106, 650, 583, 643
1107, 651, 179, 635
1108, 801, 651, 164
1109, 652, 146, 636
1110, 802, 652, 151
1111, 653, 138, 634
1112, 653, 133, 580
1113, 654, 209, 633
1114, 654, 187, 579
1115, 655, 535, 169
1116, 696, 655, 218
1117, 656, 537, 226
1118, 695, 656, 245
1119, 657, 122, 630
1120, 657, 574, 626
1121, 658, 200, 629
1122, 658, 573, 625
1123, 659, 180, 623
1124, 841, 659, 165
1125, 660, 144, 624
1126, 842, 660, 149
1127, 661, 140, 622
1128, 661, 135, 570
1129, 662, 210, 621
1130, 662, 186, 569
1131, 663, 170, 618
1132, 814, 663, 217
1133, 664, 227, 617
1134, 813, 664, 244
1135, 665, 121, 616
1136, 665, 237, 564
1137, 666, 201, 615
1138, 666, 196, 563
1139, 719, 200, 710
1140, 667, 201, 666
1141, 720, 122, 709
1142, 668, 121, 665
1143, 731, 721, 209
1144, 669, 210, 662
1145, 732, 722, 138
1146, 670, 140, 661
1147, 729, 725, 208
1148, 671, 209, 654
1149, 730, 726, 136
1150, 672, 138, 653
1151, 771, 723, 153
1152, 673, 155, 650
1153, 772, 724, 163
1154, 674, 162, 649
1155, 733, 729, 675
1156, 675, 208, 646
1157, 734, 730, 676
1158, 676, 136, 645
1159, 787, 199, 498
1160, 677, 200, 658
1161, 788, 123, 496
1162, 678, 122, 657
1163, 679, 202, 603
1164, 679, 195, 553
1165, 680, 120, 604
1166, 680, 236, 554
1167, 681, 228, 605
1168, 712, 681, 243
1169, 682, 171, 606
1170, 713, 682, 216
1171, 703, 683, 229
1172, 703, 701, 683
1173, 704, 684, 172
1174, 704, 702, 684
1175, 685, 211, 613
1176, 685, 613, 185
1177, 686, 142, 614
1178, 686, 614, 137
1179, 775, 687, 728
1180, 687, 160, 609
1181, 727, 688, 211
1182, 776, 688, 727
1183, 739, 689, 118
1184, 779, 689, 739
1185, 743, 690, 724
1186, 690, 156, 608
1187, 744, 691, 723
1188, 691, 224, 610
1189, 692, 247, 611
1190, 740, 692, 204
1191, 707, 693, 143
1192, 705, 693, 147
1193, 708, 694, 181
1194, 706, 694, 166
1195, 741, 716, 695
1196, 695, 246, 627
1197, 696, 219, 628
1198, 742, 696, 218
1199, 697, 207, 647
1200, 697, 189, 577
1201, 698, 134, 648
1202, 698, 130, 578
1203, 699, 354, 161
1204, 699, 512, 637
1205, 700, 353, 114
1206, 700, 511, 638
1207, 759, 701, 242
1208, 701, 243, 605
1209, 760, 702, 215
1210, 702, 216, 606
1211, 762, 703, 229
1212, 837, 757, 762
1213, 838, 758, 761
1214, 704, 215, 702
1215, 820, 763, 745
1216, 705, 149, 624
1217, 819, 764, 746
1218, 706, 165, 623
1219, 707, 147, 693
1220, 707, 143, 552
1221, 708, 166, 694
1222, 708, 181, 551
1223, 792, 709, 750
1224, 720, 709, 125
1225, 791, 710, 749
1226, 719, 710, 251
1227, 777, 767, 711
1228, 711, 120, 680
1229, 805, 768, 243
1230, 712, 244, 617
1231, 806, 769, 216
1232, 713, 217, 618
1233, 778, 770, 714
1234, 714, 202, 679
1235, 816, 715, 124
1236, 715, 219, 696
1237, 815, 716, 252
1238, 716, 246, 695
1239, 717, 517, 206
1240, 773, 717, 359
1241, 718, 518, 132
1242, 774, 718, 361
1243, 751, 719, 251
1244, 751, 738, 719
1245, 752, 720, 125
1246, 752, 737, 720
1247, 753, 721, 222
1248, 753, 736, 721
1249, 754, 722, 158
1250, 754, 735, 722
1251, 723, 673, 153
1252, 744, 723, 223
1253, 724, 674, 163
1254, 743, 724, 157
1255, 755, 725, 223
1256, 755, 731, 725
1257, 756, 726, 157
1258, 756, 732, 726
1259, 776, 727, 210
1260, 727, 211, 685
1261, 775, 728, 140
1262, 728, 142, 686
1263, 744, 729, 733
1264, 729, 223, 725
1265, 743, 730, 734
1266, 730, 157, 726
1267, 731, 222, 721
1268, 731, 209, 671
1269, 732, 158, 722
1270, 732, 138, 672
1271, 773, 733, 207
1272, 744, 733, 224
1273, 774, 734, 134
1274, 743, 734, 156
1275, 775, 735, 159
1276, 735, 140, 670
1277, 776, 736, 221
1278, 736, 210, 669
1279, 777, 737, 126
1280, 737, 121, 668
1281, 778, 738, 250
1282, 738, 201, 667
1283, 830, 781, 234
1284, 779, 739, 119
1285, 780, 740, 203
1286, 782, 740, 204
1287, 783, 741, 245
1288, 791, 741, 251
1289, 784, 742, 218
1290, 792, 742, 125
1291, 743, 156, 690
1292, 743, 157, 730
1293, 744, 224, 691
1294, 744, 223, 729
1295, 745, 220, 688
1296, 820, 745, 221
1297, 746, 160, 687
1298, 819, 746, 159
1299, 800, 786, 747
1300, 747, 247, 692
1301, 748, 129, 689
1302, 799, 128, 760
1303, 749, 677, 199
1304, 791, 749, 252
1305, 750, 678, 123
1306, 792, 750, 124
1307, 783, 251, 741
1308, 751, 250, 738
1309, 784, 125, 742
1310, 752, 126, 737
1311, 824, 821, 222
1312, 753, 221, 736
1313, 823, 822, 158
1314, 754, 159, 735
1315, 771, 755, 223
1316, 755, 222, 731
1317, 772, 756, 157
1318, 756, 158, 732
1319, 786, 757, 241
1320, 757, 242, 703
1321, 785, 758, 214
1322, 758, 215, 704
1323, 800, 759, 242
1324, 825, 759, 248
1325, 799, 760, 215
1326, 826, 760, 128
1327, 761, 172, 369
1328, 838, 761, 173
1329, 762, 229, 375
1330, 837, 762, 230
1331, 763, 705, 147
1332, 803, 763, 147
1333, 764, 706, 166
1334, 804, 764, 166
1335, 765, 515, 145
1336, 803, 765, 362
1337, 766, 516, 167
1338, 804, 766, 357
1339, 794, 767, 777
1340, 807, 767, 127
1341, 793, 789, 768
1342, 793, 768, 249
1343, 794, 790, 769
1344, 794, 769, 127
1345, 793, 770, 778
1346, 808, 770, 249
1347, 771, 223, 723
1348, 802, 771, 153
1349, 772, 157, 724
1350, 801, 772, 163
1351, 773, 224, 733
1352, 773, 207, 717
1353, 774, 156, 734
1354, 774, 134, 718
1355, 775, 140, 735
1356, 775, 159, 746
1357, 776, 210, 736
1358, 776, 221, 745
1359, 777, 121, 737
1360, 794, 777, 126
1361, 778, 201, 738
1362, 793, 778, 250
1363, 797, 779, 119
1364, 779, 128, 748
1365, 798, 780, 203
1366, 780, 248, 747
1367, 831, 118, 612
1368, 830, 812, 781
1369, 832, 204, 611
1370, 829, 811, 782
1371, 813, 783, 245
1372, 817, 783, 813
1373, 814, 784, 218
1374, 818, 784, 814
1375, 846, 795, 214
1376, 785, 129, 748
1377, 845, 796, 241
1378, 786, 247, 747
1379, 787, 498, 505
1380, 787, 252, 749
1381, 788, 496, 509
1382, 788, 124, 750
1383, 817, 789, 250
1384, 789, 244, 712
1385, 818, 790, 126
1386, 790, 217, 713
1387, 791, 252, 716
1388, 791, 251, 710
1389, 792, 124, 715
1390, 792, 125, 709
1391, 793, 249, 770
1392, 793, 250, 789
1393, 794, 127, 767
1394, 794, 126, 790
1395, 795, 358, 527
1396, 795, 527, 129
1397, 796, 360, 528
1398, 796, 528, 247
1399, 827, 797, 119
1400, 827, 807, 797
1401, 828, 798, 203
1402, 828, 808, 798
1403, 799, 748, 128
1404, 799, 215, 758
1405, 800, 747, 248
1406, 800, 242, 757
1407, 801, 163, 641
1408, 823, 164, 822
1409, 802, 153, 642
1410, 824, 151, 821
1411, 803, 220, 763
1412, 803, 147, 765
1413, 804, 160, 764
1414, 804, 166, 766
1415, 805, 249, 768
1416, 805, 243, 759
1417, 806, 127, 769
1418, 806, 216, 760
1419, 807, 120, 767
1420, 826, 807, 127
1421, 808, 202, 770
1422, 825, 808, 249
1423, 809, 522, 547
1424, 809, 234, 781
1425, 810, 521, 548
1426, 810, 193, 782
1427, 835, 811, 194
1428, 811, 740, 782
1429, 836, 812, 235
1430, 812, 739, 781
1431, 817, 813, 244
1432, 813, 245, 631
1433, 818, 814, 217
1434, 814, 218, 632
1435, 815, 252, 505
1436, 815, 501, 246
1437, 816, 124, 509
1438, 816, 499, 219
1439, 817, 244, 789
1440, 817, 250, 751
1441, 818, 217, 790
1442, 818, 126, 752
1443, 833, 159, 754
1444, 819, 165, 764
1445, 834, 221, 753
1446, 820, 149, 763
1447, 842, 834, 821
1448, 842, 821, 151
1449, 841, 833, 822
1450, 841, 822, 164
1451, 823, 158, 756
1452, 823, 756, 772
1453, 824, 222, 755
1454, 824, 755, 771
1455, 825, 249, 805
1456, 825, 248, 798
1457, 826, 127, 806
1458, 826, 128, 797
1459, 836, 827, 119
1460, 827, 120, 807
1461, 835, 828, 203
1462, 828, 202, 808
1463, 829, 193, 461
1464, 829, 194, 811
1465, 830, 234, 487
1466, 830, 235, 812
1467, 831, 351, 117
1468, 831, 522, 809
1469, 832, 356, 205
1470, 832, 521, 810
1471, 833, 165, 819
1472, 833, 819, 159
1473, 834, 149, 820
1474, 834, 820, 221
1475, 835, 203, 811
1476, 835, 194, 543
1477, 836, 119, 812
1478, 836, 235, 544
1479, 843, 837, 230
1480, 837, 241, 757
1481, 844, 838, 173
1482, 838, 214, 758
1483, 839, 355, 212
1484, 839, 514, 613
1485, 840, 352, 116
1486, 840, 513, 614
1487, 841, 165, 833
1488, 841, 164, 635
1489, 842, 149, 834
1490, 842, 151, 636
1491, 843, 230, 540
1492, 845, 520, 360
1493, 844, 173, 539
1494, 846, 519, 358
1495, 845, 360, 796
1496, 845, 241, 843
1497, 846, 358, 795
1498, 846, 214, 844
*Nset, nset=_PickedSet2, internal, generate
   1,  846,    1
*Elset, elset=_PickedSet2, internal, generate
    1,  1498,     1
** Section: Section-1
*Solid Section, elset=_PickedSet2, material=Material-1
1.,
*End Part
**  
**
** ASSEMBLY
**
*Assembly, name=Assembly
**  
*Instance, name=plate-1, part=plate
*End Instance
**  
*Nset, nset=LeftEdgeSet, instance=plate-1
  69,  70,  71,  72,  73,  74,  75, 294, 295, 296, 297, 298
*Elset, elset=LeftEdgeSet, instance=plate-1
 232, 363, 437, 439, 440, 442, 794, 800, 807, 810, 817
*Elset, elset=_LoadSurface_S2, internal, instance=plate-1
 310, 313, 477, 479, 480, 792, 796, 804, 806, 825
*Elset, elset=_LoadSurface_S1, internal, instance=plate-1
 482,
*Surface, type=ELEMENT, name=LoadSurface
_LoadSurface_S2, S2
_LoadSurface_S1, S1
*End Assembly
** 
** MATERIALS
** 
*Material, name=Material-1
*Elastic
 2.9e+07, 0.3
** 
** BOUNDARY CONDITIONS
** 
** Name: BC-LeftEdge Type: Displacement/Rotation
*Boundary
LeftEdgeSet, 1, 1
LeftEdgeSet, 2, 2
** ----------------------------------------------------------------
** 
** STEP: Step-1
** 
*Step, name=Step-1, nlgeom=NO
*Static
1., 1., 1e-05, 1.
** 
** LOADS
** 
** Name: Load-1   Type: Pressure
*Dsload
LoadSurface, P, -6999.
** 
** OUTPUT REQUESTS
** 
*Restart, write, frequency=0
** 
** FIELD OUTPUT: F-Output-1
** 
*Output, field, variable=PRESELECT
** 
** HISTORY OUTPUT: H-Output-1
** 
*Output, history, variable=PRESELECT
*End Step
