*Heading
** Job name: plate_circle4__1000 Model name: PlateModel
** Generated by: Abaqus/CAE 2022
*Preprint, echo=NO, model=NO, history=NO, contact=NO
**
** PARTS
**
*Part, name=plate
*Node
      1,    1.8019377,  0.867767453
      2,   1.24697959,   1.56366301
      3,  0.445041865,    1.9498558
      4,  -1.24697959,   1.56366301
      5,   -1.8019377,  0.867767453
      6,          -2.,           0.
      7,   -1.8019377, -0.867767453
      8,  -1.24697959,  -1.56366301
      9, -0.445041865,   -1.9498558
     10,   1.24697959,  -1.56366301
     11,    1.8019377, -0.867767453
     12,           2.,           0.
     13,   28.2089558,           5.
     14,   26.4179096,           5.
     15,   24.6268654,           5.
     16,   22.8358212,           5.
     17,   21.0447769,           5.
     18,   18.3582096,           5.
     19,   16.5671635,           5.
     20,   14.7761192,           5.
     21,    12.985075,           5.
     22,   11.1940298,           5.
     23,   9.40298462,           5.
     24,   7.61194038,           5.
     25,   5.82089567,           5.
     26,   4.02985096,           5.
     27,   2.23880601,           5.
     28,  0.447761208,           5.
     29,  -2.23880601,           5.
     30,  -4.02985096,           5.
     31,  -5.82089567,           5.
     32,  -7.61194038,           5.
     33,  -9.40298462,           5.
     34,  -11.1940298,           5.
     35,   -12.985075,           5.
     36,  -14.7761192,           5.
     37,  -16.5671635,           5.
     38,  -18.3582096,           5.
     39,  -21.0447769,           5.
     40,  -22.8358212,           5.
     41,  -24.6268654,           5.
     42,  -26.4179096,           5.
     43,  -28.2089558,           5.
     44,          30.,           5.
     45,         -30.,           5.
     46,         -30.,   3.18181825
     47,         -30.,   1.36363637
     48,         -30., -0.454545468
     49,         -30.,  -1.36363637
     50,         -30.,  -3.18181825
     51,         -30.,          -5.
     52,  -28.2089558,          -5.
     53,  -26.4179096,          -5.
     54,  -24.6268654,          -5.
     55,  -22.8358212,          -5.
     56,  -21.0447769,          -5.
     57,  -18.3582096,          -5.
     58,  -16.5671635,          -5.
     59,  -14.7761192,          -5.
     60,   -12.985075,          -5.
     61,  -11.1940298,          -5.
     62,  -9.40298462,          -5.
     63,  -7.61194038,          -5.
     64,  -5.82089567,          -5.
     65,  -4.02985096,          -5.
     66,  -2.23880601,          -5.
     67, -0.447761208,          -5.
     68,   2.23880601,          -5.
     69,   4.02985096,          -5.
     70,   5.82089567,          -5.
     71,   7.61194038,          -5.
     72,   9.40298462,          -5.
     73,   11.1940298,          -5.
     74,    12.985075,          -5.
     75,   14.7761192,          -5.
     76,   16.5671635,          -5.
     77,   18.3582096,          -5.
     78,   21.0447769,          -5.
     79,   22.8358212,          -5.
     80,   24.6268654,          -5.
     81,   26.4179096,          -5.
     82,   28.2089558,          -5.
     83,          30.,          -5.
     84,          30.,  -3.18181825
     85,          30.,  -1.36363637
     86,          30.,  0.454545468
     87,          30.,   1.36363637
     88,          30.,   3.18181825
     89,   1.99889314,  -3.43370724
     90,   2.06228089,  -1.79906213
     91,   3.62936711,  -1.69713509
     92,   5.67370605,  -1.76337481
     93,   7.53508377,  -1.79262829
     94,   9.35912895,  -1.71255243
     95,   11.2106209,  -1.63175011
     96,   13.1032925,  -1.62562478
     97,   15.0211906,   -1.7065171
     98,   17.0899124,  -1.68796253
     99,   18.7729473,  -1.72826755
    100,   20.6905842,  -1.70776486
    101,   22.5314274,  -1.72188675
    102,   24.4256554,  -1.76352715
    103,   26.2770157,  -1.77402782
    104,   28.2602806,  -1.57522869
    105,   28.0675716, -0.0475276746
    106,   26.2318592, -0.0682453364
    107,    24.370285, -0.00299917208
    108,    22.552557, 0.0279291701
    109,    20.561758, -0.0424775071
    110,   18.7013626, -0.157191947
    111,   16.8078976, -0.00732767535
    112,   15.0068684, 0.0285280272
    113,   13.1185207,  0.127610013
    114,    11.219347,  0.108252272
    115,   9.37374115, -0.00145785266
    116,   7.52026272, -0.107843459
    117,   5.66521692, -0.0850027427
    118,   3.64281964, 0.0534649417
    119,  -28.3729458,  -3.26286507
    120,  -26.3651428,  -3.39995861
    121,  -24.4910545,  -3.42741537
    122,  -22.6214676,  -3.45573282
    123,   -20.711134,  -3.51447845
    124,  -18.5534782,  -3.33283401
    125,  -16.7568913,  -3.45768309
    126,  -14.8921022,   -3.4294045
    127,  -13.0370026,  -3.43019819
    128,  -11.2114849,  -3.41767597
    129,   -9.3978138,  -3.40345168
    130,  -7.57291651,  -3.39619732
    131,  -5.72363186,   -3.4286778
    132,  -3.91387033,   -3.4386909
    133,  -1.79504931,  -3.40821767
    134, 0.0379346348,  -3.52722692
    135,   3.87185311,   -3.4229579
    136,    5.7282033,  -3.42669439
    137,   7.57157326,  -3.42558932
    138,   9.38887882,  -3.40471625
    139,   11.2085085,  -3.38933492
    140,   13.0398083,  -3.39692903
    141,   14.9003344,  -3.41334438
    142,   16.7657242,  -3.45008373
    143,   18.6801281,   -3.5175817
    144,   20.8358479,  -3.33703423
    145,   22.6282387,  -3.46164608
    146,   24.4971352,  -3.43340921
    147,   26.3578262,  -3.41493797
    148,    28.363203,  -3.27432323
    149,  -2.07278085,  -1.70927286
    150,  -3.84870958,  -1.84806991
    151,  -5.46532011,  -1.60369444
    152,  -7.53173256,   -1.6394397
    153,  -9.40384483,  -1.70969057
    154,  -11.2273426,  -1.78284776
    155,  -13.0804644,  -1.80126226
    156,   -14.948163,  -1.76084244
    157,  -16.8436928,  -1.71950364
    158,  -18.7011395,   -1.7311269
    159,  -20.6475372,  -1.53114307
    160,  -22.3215408,  -1.70669866
    161,  -24.3586941,  -1.74700308
    162,  -26.2833996,  -1.68407822
    163,  -28.3000278,   -1.5231508
    164,  -3.64281964, -0.0534649417
    165,  -5.66521692, 0.0850027427
    166,  -7.52026272,  0.107843459
    167,  -9.37374115, 0.00145785266
    168,   -11.219347, -0.108252272
    169,  -13.1185207, -0.127610013
    170,  -15.0068684, -0.0285280272
    171,  -16.8078976, 0.00732767535
    172,  -18.7013626,  0.157191917
    173,  -20.5617599, 0.0424772426
    174,  -22.5525608, -0.0279287919
    175,   -24.370285, 0.00299955532
    176,  -26.2318592, 0.0682453662
    177,  -28.0675716, 0.0475276746
    178,  -2.06228089,   1.79906213
    179,  -3.62936711,   1.69713509
    180,  -5.67370605,   1.76337481
    181,  -7.53508377,   1.79262829
    182,  -9.35912895,   1.71255243
    183,  -11.2106209,   1.63175011
    184,  -13.1032925,   1.62562478
    185,  -15.0211906,    1.7065171
    186,  -17.0899124,   1.68796253
    187,  -18.7729473,   1.72826755
    188,  -20.6905861,   1.70776403
    189,  -22.5314293,   1.72188759
    190,  -24.4256554,   1.76352894
    191,  -26.2770157,   1.77402794
    192,  -28.2602806,   1.57522869
    193,   28.3729458,   3.26286507
    194,   26.3651428,   3.39995861
    195,   24.4910545,   3.42741537
    196,   22.6214676,   3.45573282
    197,    20.711134,   3.51447845
    198,   18.5534782,   3.33283401
    199,   16.7568913,   3.45768309
    200,   14.8921022,    3.4294045
    201,   13.0370026,   3.43019819
    202,   11.2114849,   3.41767597
    203,    9.3978138,   3.40345168
    204,   7.57291651,   3.39619732
    205,   5.72363186,    3.4286778
    206,   3.91387033,    3.4386909
    207,   1.79504931,   3.40821767
    208, -0.0379346348,   3.52722692
    209,  -1.99889314,   3.43370724
    210,  -3.87185311,    3.4229579
    211,   -5.7282033,   3.42669439
    212,  -7.57157326,   3.42558932
    213,  -9.38887882,   3.40471625
    214,  -11.2085085,   3.38933492
    215,  -13.0398083,   3.39692903
    216,  -14.9003344,   3.41334438
    217,  -16.7657242,   3.45008373
    218,  -18.6801281,    3.5175817
    219,  -20.8358479,   3.33703399
    220,  -22.6282368,   3.46164703
    221,  -24.4971333,   3.43341041
    222,  -26.3578262,   3.41493797
    223,   -28.363203,   3.27432323
    224,   2.07278085,   1.70927286
    225,   3.84870958,   1.84806991
    226,   5.46532011,   1.60369444
    227,   7.53173256,    1.6394397
    228,   9.40384483,   1.70969057
    229,   11.2273426,   1.78284776
    230,   13.0804644,   1.80126226
    231,    14.948163,   1.76084244
    232,   16.8436928,   1.71950364
    233,   18.7011395,    1.7311269
    234,   20.6475372,   1.53114343
    235,   22.3215408,   1.70669913
    236,   24.3586941,    1.7470032
    237,   26.2833996,   1.68407822
    238,   28.3000278,    1.5231508
    239, -0.445041865,    1.9498558
    240,  0.445041865,   -1.9498558
    241,   29.1044769,           5.
    242,   27.3134327,           5.
    243,   25.5223885,           5.
    244,   23.7313442,           5.
    245,   21.9402981,           5.
    246,   20.1492538,           5.
    247,   19.2537308,           5.
    248,   17.4626865,           5.
    249,   15.6716413,           5.
    250,   13.8805971,           5.
    251,   12.0895519,           5.
    252,   10.2985077,           5.
    253,    8.5074625,           5.
    254,   6.71641779,           5.
    255,   4.92537308,           5.
    256,   3.13432837,           5.
    257,   1.34328353,           5.
    258, -0.447761208,           5.
    259,  -1.34328353,           5.
    260,  -3.13432837,           5.
    261,  -4.92537308,           5.
    262,  -6.71641779,           5.
    263,   -8.5074625,           5.
    264,  -10.2985077,           5.
    265,  -12.0895519,           5.
    266,  -13.8805971,           5.
    267,  -15.6716413,           5.
    268,  -17.4626865,           5.
    269,  -19.2537308,           5.
    270,  -20.1492538,           5.
    271,  -21.9402981,           5.
    272,  -23.7313442,           5.
    273,  -25.5223885,           5.
    274,  -27.3134327,           5.
    275,  -29.1044769,           5.
    276,         -30.,     4.090909
    277,         -30.,   2.27272725
    278,         -30.,  0.454545468
    279,         -30.,  -2.27272725
    280,         -30.,    -4.090909
    281,  -29.1044769,          -5.
    282,  -27.3134327,          -5.
    283,  -25.5223885,          -5.
    284,  -23.7313442,          -5.
    285,  -21.9402981,          -5.
    286,  -20.1492538,          -5.
    287,  -19.2537308,          -5.
    288,  -17.4626865,          -5.
    289,  -15.6716413,          -5.
    290,  -13.8805971,          -5.
    291,  -12.0895519,          -5.
    292,  -10.2985077,          -5.
    293,   -8.5074625,          -5.
    294,  -6.71641779,          -5.
    295,  -4.92537308,          -5.
    296,  -3.13432837,          -5.
    297,  -1.34328353,          -5.
    298,  0.447761208,          -5.
    299,   1.34328353,          -5.
    300,   3.13432837,          -5.
    301,   4.92537308,          -5.
    302,   6.71641779,          -5.
    303,    8.5074625,          -5.
    304,   10.2985077,          -5.
    305,   12.0895519,          -5.
    306,   13.8805971,          -5.
    307,   15.6716413,          -5.
    308,   17.4626865,          -5.
    309,   19.2537308,          -5.
    310,   20.1492538,          -5.
    311,   21.9402981,          -5.
    312,   23.7313442,          -5.
    313,   25.5223885,          -5.
    314,   27.3134327,          -5.
    315,   29.1044769,          -5.
    316,          30.,    -4.090909
    317,          30.,  -2.27272725
    318,          30., -0.454545468
    319,          30.,   2.27272725
    320,          30.,     4.090909
    321,   1.41624534,   2.34347224
    322,  -1.41624534,  -2.34347224
    323,  -1.36535597,   2.54673243
    324,   1.36535597,  -2.54673243
    325,   2.73424721,  -1.26936209
    326,  -2.73424721,   1.26936209
    327,   2.57401347,   1.16363823
    328,  -2.57401347,  -1.16363823
    329,   20.6025066,   4.37653065
    330,  -20.6025066,  -4.37653065
    331,   28.7888851,   4.17556095
    332,   26.8531246,   4.19971037
    333,   25.0232468,   4.22603273
    334,   23.1927567,   4.22973585
    335,   19.6789608,   4.07580233
    336,   17.0830383,    4.2533679
    337,  -28.7888851,  -4.17556095
    338,  -26.8531246,  -4.19971037
    339,  -25.0232468,  -4.22603273
    340,  -23.1927567,  -4.22973585
    341,  -19.6789608,  -4.07580233
    342,  -17.0830383,   -4.2533679
    343,   16.2024364,   4.22959518
    344,  -16.2024364,  -4.22959518
    345,   15.2958117,   4.22005653
    346,  -15.2958117,  -4.22005653
    347,   27.8056946,   4.16701794
    348,   25.9353142,   4.21233273
    349,  0.176058561,  -4.26195478
    350,  -9.84862137,   4.20977259
    351,  -11.6553698,   4.21005774
    352,  -12.5597477,   -4.2186904
    353,  -10.7515478,  -4.21221685
    354,  -2.58719635,   4.22425699
    355,  -4.40839911,   4.22149563
    356, -0.176058561,   4.26195478
    357, -0.915963292,   4.42010403
    358,   24.0965824,    4.2187767
    359,   22.2837791,   4.24834108
    360,   17.9645824,   4.25204325
    361,   14.3778791,   4.22082138
    362,   12.5597477,    4.2186904
    363,   10.7515478,   4.21221685
    364,   8.94639492,   4.21110249
    365,   7.13901854,   4.21489811
    366,   5.32622004,   4.22892761
    367,   3.51428366,   4.22477484
    368,   1.76290357,   4.34649849
    369,  -6.23203707,   4.22175217
    370,  -8.04290581,   4.21621275
    371,   -13.464344,   4.21699142
    372,  -14.3778791,  -4.22082138
    373,  -15.2938395,    4.2195158
    374,  -17.1082153,   4.24759579
    375,  -17.9645824,  -4.25204325
    376,  -18.7957821,   4.37727261
    377,  -21.4316025,   4.25322294
    378,  -22.2837791,  -4.24834108
    379,  -23.1922855,   4.23082829
    380,  -24.0965824,   -4.2187767
    381,  -25.0242596,   4.22703218
    382,  -25.9353142,  -4.21233273
    383,  -26.8518925,   4.20220423
    384,  -27.8056946,  -4.16701794
    385,  -28.7870502,   4.17876434
    386,  -8.94639492,  -4.21110249
    387,  -7.13901854,  -4.21489811
    388,  -5.32622004,  -4.22892761
    389,  -3.51428366,  -4.22477484
    390,  -1.76290357,  -4.34649849
    391,  0.915963292,  -4.42010403
    392,   28.7870502,  -4.17876434
    393,   2.58719635,  -4.22425699
    394,   26.8518925,  -4.20220423
    395,   25.0242596,  -4.22703171
    396,   23.1922855,  -4.23082781
    397,   21.4316025,  -4.25322294
    398,   18.7957821,  -4.37727261
    399,   17.1082153,  -4.24759579
    400,   6.23203707,  -4.22175217
    401,   8.04290581,  -4.21621275
    402,   11.6553698,  -4.21005774
    403,    13.464344,  -4.21699142
    404,   15.2938395,   -4.2195158
    405,   4.40839911,  -4.22149563
    406,   9.84862137,  -4.20977259
    407,   21.3808556,   4.27592325
    408,   18.7617931,   4.33213568
    409,   13.4669676,   4.21887398
    410,   11.6563034,   4.21283722
    411,   9.85002708,   4.20747519
    412,   8.04250622,   4.20781422
    413,   6.22922421,   4.21845293
    414,   4.41968203,   4.22725058
    415,    2.5698278,   4.23107481
    416,  0.804101646,   4.05948973
    417,   -1.6705339,   4.27839899
    418,  -3.49776864,   4.21552992
    419,  -5.31338882,    4.2161684
    420,  -7.13738918,   4.21691513
    421,  -8.94473553,   4.20919609
    422,  -10.7513676,   4.20454788
    423,  -12.5609856,   4.20877981
    424,  -14.3792868,   4.21552372
    425,  -16.2128944,   4.22382164
    426,  -18.0148888,    4.2751174
    427,  -19.7168598,   4.07871628
    428,  -20.6356678,   4.33379459
    429,  -22.3086166,   4.25769377
    430,  -24.0976849,   4.22012472
    431,  -25.9340591,   4.21541119
    432,  -27.8035488,   4.16987419
    433,  -21.3808556,  -4.27592325
    434,  -18.7617931,  -4.33213568
    435,  -13.4669676,  -4.21887398
    436,  -11.6563034,  -4.21283722
    437,  -9.85002708,  -4.20747519
    438,  -8.04250622,  -4.20781422
    439,  -6.22922421,  -4.21845293
    440,  -4.41968203,  -4.22725058
    441,   -2.5698278,  -4.23107481
    442, -0.804101646,  -4.05948973
    443,    1.6705339,  -4.27839899
    444,   3.49776864,  -4.21552992
    445,   5.31338882,   -4.2161684
    446,   7.13738918,  -4.21691513
    447,   8.94473553,  -4.20919609
    448,   10.7513676,  -4.20454788
    449,   12.5609856,  -4.20877981
    450,   14.3792868,  -4.21552372
    451,   16.2128944,  -4.22382164
    452,   18.0148888,   -4.2751174
    453,   19.7168598,  -4.07871628
    454,   20.6356678,  -4.33379459
    455,   22.3086166,  -4.25769377
    456,   24.0976849,  -4.22012424
    457,   25.9340591,  -4.21541119
    458,   27.8035488,  -4.16987419
    459,   29.2749138,   3.49266505
    460,  -29.2749138,  -3.49266505
    461,   29.1535397,    -1.001845
    462,   29.2184143,  -2.75112724
    463,  -29.1535397,     1.001845
    464,  -29.2184143,   2.75112724
    465,   29.1700726,  0.967939138
    466,    29.202116,   1.87349713
    467,  -29.1700726, -0.967939138
    468,   -29.202116,  -1.87349713
    469,  -29.2737331,   3.49538827
    470,  -29.1900749,   1.89058602
    471,  -29.0409489, 0.0221370608
    472,  -29.2299728,   -2.7408216
    473,   29.2737331,  -3.49538827
    474,   29.1900749,  -1.89058602
    475,   29.0409489, -0.0221370608
    476,   29.2299728,    2.7408216
    477,   -2.4177475,   2.63395286
    478,    2.4177475,  -2.63395286
    479,   2.43769789,   2.54749131
    480,  -2.43769789,  -2.54749131
    481,    2.6792531,  0.449552864
    482,   -2.6792531, -0.449552864
    483,   -2.7079277,  0.412157804
    484,    2.7079277, -0.412157804
    485,   27.3252449,   3.33528996
    486,   23.5464077,   3.42675376
    487,  -27.3252449,  -3.33528996
    488,  -23.5464077,  -3.42675376
    489,   17.5649395,   3.58593011
    490,  -17.5649395,  -3.58593011
    491,   25.4334698,    3.4103775
    492,  -25.4334698,   -3.4103775
    493,  -21.8230247,   3.58914804
    494,   21.8230247,  -3.58914781
    495,   21.7088814,   3.50369167
    496,  -21.7088814,  -3.50369167
    497,  -17.6785526,   3.50014114
    498,   17.6785526,  -3.50014114
    499,  -2.94675493,   3.42402625
    500,   2.94675493,  -3.42402625
    501,   2.93874907,   3.41260171
    502,  -2.93874907,  -3.41260171
    503,  -23.5552788,    3.4288342
    504,   23.5552788,  -3.42883253
    505,   15.8298283,   3.42533493
    506,  -15.8298283,  -3.42533493
    507,  -15.8408375,   3.41913438
    508,   15.8408375,  -3.41913438
    509,  -4.79581404,   3.41527033
    510,   4.79581404,  -3.41527033
    511,   4.81340122,   3.43677855
    512,  -4.81340122,  -3.43677855
    513,  -25.4346905,   3.42575455
    514,   25.4346905,  -3.42575407
    515,   13.9570074,   3.42585564
    516,  -13.9570074,  -3.42585564
    517,  -13.9677124,   3.38716817
    518,   13.9677124,  -3.38716817
    519,  -6.65612364,   3.42280316
    520,   6.65612364,  -3.42280316
    521,   6.64647055,   3.39132667
    522,  -6.64647055,  -3.39132667
    523,  -27.3094749,   3.35655284
    524,   27.3094749,  -3.35655284
    525,   12.1229496,   3.41936421
    526,  -12.1229496,  -3.41936421
    527,  -12.1234007,   3.37658381
    528,   12.1234007,  -3.37658381
    529,   8.48227501,  -3.41193199
    530,  -8.48227501,   3.41193199
    531,   8.48997593,   3.38184977
    532,  -8.48997593,  -3.38184977
    533,   10.3035192,   3.40537643
    534,  -10.3035192,  -3.40537643
    535,  -10.2942085,   3.37786627
    536,   10.2942085,  -3.37786627
    537, -0.505261958,  -2.87184548
    538,  0.505261958,   2.87184548
    539, -0.456426293,   2.89759731
    540,  0.456426293,  -2.89759731
    541,   28.5723572,   2.37114167
    542,  -28.5723572,  -2.37114167
    543,  -28.5499496,   2.39751601
    544,   28.5499496,  -2.39751601
    545,  -21.9313011,   2.68056607
    546,   21.9312992,   -2.6805656
    547,  -22.0311203,  -2.70178366
    548,   22.0311203,   2.70178366
    549,  -3.38686848,  0.835574389
    550,   3.38686848, -0.835574389
    551,   17.4496384,   2.67732882
    552,  -17.4496384,  -2.67732882
    553,   17.3566437,  -2.69721103
    554,  -17.3566437,   2.69721103
    555,  -3.32102489,   2.62700558
    556,   3.32102489,  -2.62700558
    557,   -23.980196,   2.60505795
    558,    23.980196,  -2.60505581
    559,  -23.9406414,  -2.60072112
    560,   23.9406414,   2.60072112
    561,   0.94588083,  -3.62367439
    562,  -0.94588083,   3.62367439
    563,   15.3994579,   2.60062599
    564,  -15.3994579,  -2.60062599
    565,   15.4436836,  -2.57671285
    566,  -15.4436836,   2.57671285
    567,  -5.21979809,   2.59145212
    568,   5.21979809,  -2.59145212
    569,  -5.17756701,  -2.60407186
    570,   5.17756701,   2.60407186
    571,  -27.7419415,   2.48380232
    572,   27.7419415,  -2.48380232
    573,  -27.7711163,  -2.44496751
    574,   27.7711163,   2.44496751
    575,  -25.8508434,    2.6050384
    576,   25.8508434,  -2.60503817
    577,  -25.8459625,   -2.5560379
    578,   25.8459625,    2.5560379
    579,   13.5271511,   2.61768985
    580,  -13.5271511,  -2.61768985
    581,   13.5482645,  -2.51969028
    582,  -13.5482645,   2.51969028
    583,  -7.08856297,   2.61235523
    584,   7.08856297,  -2.61235523
    585,  -7.07132006,  -2.52007222
    586,   7.07132006,   2.52007222
    587,   11.6832991,   2.60701132
    588,  -11.6832991,  -2.60701132
    589,  -11.6775723,   2.50664639
    590,   11.6775723,  -2.50664639
    591,   8.91626453,  -2.57855964
    592,  -8.91626453,   2.57855964
    593,  -8.94088936,  -2.54165387
    594,   8.94088936,   2.54165387
    595,   9.85440922,   2.57253313
    596,  -9.85440922,  -2.57253313
    597,  -9.82902241,    2.5388658
    598,   9.82902241,   -2.5388658
    599,  -10.7476397,   2.51558399
    600,   10.7476397,  -2.51558399
    601,  -10.7660751,  -2.59259248
    602,   10.7660751,   2.59259248
    603,   8.01618385,   2.52165842
    604,  -8.01618385,  -2.52165842
    605,  -8.00605106,   2.59991264
    606,   8.00605106,  -2.59991264
    607,  -12.6089706,   2.50706339
    608,   12.6089706,  -2.50706339
    609,  -12.6030073,   -2.6118269
    610,   12.6030073,    2.6118269
    611,   26.8081932,   2.51181245
    612,  -26.8081932,  -2.51181245
    613,   26.7905407,  -2.55864835
    614,  -26.7905407,   2.55864835
    615,   6.10526466,   2.53010249
    616,  -6.10526466,  -2.53010249
    617,  -6.16104269,   2.60226274
    618,   6.16104269,  -2.60226274
    619,  -14.4917183,   2.54264641
    620,   14.4917183,  -2.54264641
    621,  -14.4576969,  -2.60599422
    622,   14.4576969,   2.60599422
    623,   24.8934383,    2.5763514
    624,  -24.8934383,   -2.5763514
    625,   24.9231529,    -2.606004
    626,  -24.9231529,   2.60600495
    627,  -25.3612709,   1.77450764
    628,   25.3612709,  -1.77450705
    629,   14.0052691,   1.78371143
    630,  -14.0052691,  -1.78371143
    631,   -6.6155324,   1.78205609
    632,    6.6155324,  -1.78205609
    633,   12.1506987,   1.79000282
    634,  -12.1506987,  -1.79000282
    635,   8.44762993,  -1.75775242
    636,  -8.44762993,   1.75775242
    637,   10.3138523,   1.75114846
    638,  -10.3138523,  -1.75114846
    639,  -27.2266273,   1.69808412
    640,   27.2266273,    -1.698084
    641,    -23.02178,   2.60932636
    642,     23.02178,  -2.60932469
    643,  -22.9746819,  -2.61245441
    644,   22.9746819,   2.61245465
    645,   21.2706394,   2.85891604
    646,  -21.2706394,  -2.85891604
    647,   16.3583355,   2.60554886
    648,  -16.3583355,  -2.60554886
    649,  -18.1168747,   2.86648655
    650,   18.1168747,  -2.86648655
    651,   16.4135418,  -2.59980893
    652,  -16.4135418,   2.59980893
    653,  -4.25904846,   2.57973194
    654,   4.25904846,  -2.57973194
    655,  -4.21815872,  0.845099688
    656,   4.21815872, -0.845099688
    657,    4.2993741,   2.65332532
    658,   -4.2993741,  -2.65332532
    659,  -27.2605591,  -1.61715698
    660,   27.2605591,   1.61715698
    661,   21.3841076,   2.07254577
    662,  -21.3841076,  -2.07254553
    663,  -18.0467663,   2.09279895
    664,   18.0467663,  -2.09279895
    665,   20.5724373,   2.48063278
    666,  -20.5724373,  -2.48063278
    667,   4.64239025,   1.94569564
    668,  -4.64239025,  -1.94569564
    669,  -18.8268852,   2.52406955
    670,   18.8268852,  -2.52406955
    671,    3.4008584,   2.61530757
    672,   -3.4008584,  -2.61530757
    673,   26.7196178, -0.905162096
    674,  -26.7196178,  0.905162156
    675,   23.4922905,  -1.72712708
    676,  -23.3962593,  -1.75057518
    677,   23.3962574,    1.7505753
    678,  -23.4922905,   1.72712839
    679,   15.9870071,   -1.7315619
    680,  -15.9870071,    1.7315619
    681,   27.6649418,  0.741724372
    682,  -27.6649418, -0.741724372
    683,   -25.793848,  0.916573465
    684,    25.793848, -0.916573226
    685,   13.5697374,  0.953107238
    686,  -13.5697374, -0.953107238
    687,  -7.05958509,  0.949414432
    688,   7.05958509, -0.949414432
    689,    9.8473053,  0.879643142
    690,   -9.8473053, -0.879643142
    691,    11.696949,  0.956635892
    692,   -11.696949, -0.956635892
    693,    8.9055481, -0.884435952
    694,   -8.9055481,  0.884435952
    695,  -4.69956064,   1.72798741
    696,   4.69956064,  -1.72798741
    697,  -7.99105692,  0.928861201
    698,   7.99105692, -0.928861201
    699,   10.7621069,  0.925659835
    700,  -10.7621069, -0.925659835
    701,  -12.6319818, -0.960928082
    702,   12.6319818,  0.960928082
    703,  -6.12744284,  0.930941284
    704,   6.12744284, -0.930941284
    705,   14.5103722,  0.912529826
    706,  -14.5103722, -0.912529826
    707,   24.8622665, -0.892142236
    708,  -24.8622665,  0.892142951
    709,  -26.7258339, -0.786958218
    710,   26.7258339,  0.786958218
    711,  -4.73447371, 0.0114189005
    712,   4.73447371, -0.0114189005
    713,  -27.6452961,  0.831684589
    714,   27.6452961, -0.831684589
    715,   15.8831768,   1.72502244
    716,  -15.8831768,  -1.72502244
    717,  -25.3018227, 0.0341308936
    718,   25.3018227, -0.0341306664
    719,   14.0674858, 0.0876879469
    720,  -14.0674858, -0.0876879469
    721,  -6.58322096,  0.101971015
    722,   6.58322096, -0.101971015
    723,   12.1649628,  0.121127255
    724,  -12.1649628, -0.121127255
    725,   8.45566177, -0.0613972321
    726,  -8.45566177, 0.0613972321
    727,   10.2913418, 0.0593826659
    728,  -10.2913418, -0.0593826659
    729,   19.6753445,    1.8788898
    730,  -19.6753445,  -1.87888968
    731,  -19.6807804,   1.91045463
    732,   19.6807785,  -1.91045511
    733,   21.4895573,   1.14883542
    734,  -21.4895592,  -1.14883482
    735,  -18.1036682,   1.06215847
    736,   18.1036682,  -1.06215858
    737,   19.6923885,    2.9565835
    738,  -19.6923885,   -2.9565835
    739,   19.6930923,  -2.97196889
    740,  -19.6930923,   2.97196865
    741,   4.42116404,   1.02275252
    742,  -4.42116404,  -1.02275252
    743,   -2.9476862,  -1.82060063
    744,    2.9476862,   1.82060063
    745,   23.0158367, -0.845207214
    746,  -22.9587173, -0.859817505
    747,   22.9587154,  0.859818101
    748,  -23.0158386,  0.845207691
    749,   8.92734718,  0.822761238
    750,  -8.92734718, -0.822761238
    751,   9.82398796,  -0.82482636
    752,  -9.82398796,   0.82482636
    753,  -5.18642664,  0.893970788
    754,   5.18642664, -0.893970788
    755,     16.35536,  0.848401427
    756,    -16.35536, -0.848401427
    757,   16.4260941, -0.844387591
    758,  -16.4260941,  0.844387591
    759,   15.4362411,  0.874659657
    760,  -15.4362411, -0.874659657
    761,   23.9372196, -0.866706371
    762,  -23.9372215,  0.866707265
    763,  -25.7734413, -0.824533701
    764,   25.7734413,  0.824533761
    765,   -28.433527,  0.695684612
    766,    28.433527, -0.695684612
    767,    15.491641, -0.843245208
    768,   -15.491641,  0.843245208
    769,   23.8913097,  0.874525189
    770,  -23.8913097, -0.874524891
    771,   27.1758537, -0.0539895184
    772,  -27.1758537, 0.0539895371
    773,  -23.4543228, -0.00789277907
    774,   23.4543209, 0.00789328851
    775,   15.9206829, 0.0094381012
    776,  -15.9206829, -0.0094381012
    777,   19.9566021,  0.799969733
    778,   -19.956604, -0.799969673
    779,   19.1858597, -0.990843356
    780,  -19.1858616,  0.990843058
    781,   3.35227442,   1.05967987
    782,  -3.35227442,  -1.05967987
    783,   22.0700741, -0.820685446
    784,   -22.177269, -0.775592685
    785,   22.1772671,  0.775593162
    786,  -22.0700779,  0.820685446
    787,   8.46887684,   1.66575909
    788,  -8.46887684,  -1.66575909
    789,  -10.2864437,   1.66407204
    790,   10.2864437,  -1.66407204
    791,   17.2243156, -0.728740931
    792,  -17.2243156,  0.728740931
    793,   17.3019657,  0.833547592
    794,  -17.3019657, -0.833547592
    795,  -25.3269749,  -1.70833218
    796,   25.3269749,   1.70833218
    797,  -28.4487114, -0.632629931
    798,   28.4487114,  0.632629931
    799,   14.5434237, -0.800578892
    800,  -14.5434237,  0.800578892
    801,   24.8370876,  0.852877438
    802,  -24.8370876, -0.852877259
    803,   11.6922321, -0.748851538
    804,  -11.6922321,  0.748851538
    805,   5.27445412,  0.652400017
    806,  -5.27445412, -0.652400017
    807,   13.5917606, -0.762721777
    808,  -13.5917606,  0.762721777
    809,  -7.04364204, -0.758953691
    810,   7.04364204,  0.758953691
    811,   10.7539959, -0.783644199
    812,  -10.7539959,  0.783644199
    813,   7.99125385,  0.786278844
    814,  -7.99125385, -0.786278844
    815,   12.6387091, -0.750894427
    816,  -12.6387091,  0.750894427
    817,   12.1552324,  -1.62847173
    818,  -12.1552324,   1.62847173
    819,  -21.5454178, -0.137544394
    820,    21.545414,  0.137544468
    821,   17.7501469, -0.0520118251
    822,  -17.7501469, 0.0520118177
    823,   20.8401737,  0.715003133
    824,  -20.8401756, -0.715002954
    825,   21.5751381,   -1.6903162
    826,    -21.57514,   1.69031596
    827,  -17.8234234,   -1.6889956
    828,   17.8234234,    1.6889956
    829,    14.049942,  -1.65962994
    830,   -14.049942,   1.65962994
    831,   6.09652233,  0.743474364
    832,  -6.09652233, -0.743474364
    833,    20.399559,  -2.45840573
    834,  -20.3995609,   2.45840502
    835,    18.980957,      2.45242
    836,   -18.980957,     -2.45242
    837,  -2.83293343,   2.00530362
    838,   2.83293343,  -2.00530362
    839,   6.55230045,   1.63262284
    840,  -6.55230045,  -1.63262284
    841,   18.3017273,   2.37654114
    842,  -18.3017273,  -2.37654114
    843,   21.0864849,  -2.37481737
    844,  -21.0864868,   2.37481713
    845,   19.1732903,   1.14426661
    846,  -19.1732903,  -1.14426661
    847,  -20.1512451,  0.940022945
    848,   20.1512432, -0.940023363
    849,   21.0990353, -0.843953848
    850,  -21.0990372,   0.84395355
    851,  -18.3747177, -0.812897027
    852,   18.3747177,  0.812896967
    853,   19.6214199, -0.138170063
    854,  -19.6214199,    0.1381699
    855,   19.1654778,  0.492354274
    856,  -19.1654797, -0.492354304
*Element, type=CPS3
   1, 481, 327,   1
   2, 741, 118, 712
   3, 831, 722, 810
   4, 813, 787, 227
   5, 689, 637, 228
   6, 691, 633, 229
   7, 685, 629, 230
   8, 759, 715, 231
   9, 793, 232, 755
  10, 855, 777, 845
  11, 820, 785, 733
  12, 747, 677, 235
  13, 801, 718, 764
  14, 771, 681, 710
  15, 798, 238, 681
  16, 466, 465,  87
  17, 476, 466, 319
  18, 541, 466, 476
  19, 459, 320, 331
  20, 347, 242, 332
  21, 332, 242,  14
  22, 348,  14, 243
  23, 333, 243,  15
  24, 623, 491, 195
  25, 764, 718, 106
  26, 349,  67, 298
  27, 537, 133, 442
  28, 149,   8,   7
  29, 743, 150, 672
  30, 753, 711, 655
  31, 583, 519, 212
  32, 421, 370, 263
  33, 422, 351, 214
  34, 535, 350, 422
  35, 351,  34, 265
  36, 527, 351, 423
  37, 607, 527, 215
  38, 816, 724, 804
  39, 701, 634, 692
  40, 609, 526, 588
  41, 352,  60, 291
  42, 436, 352, 291
  43, 353,  61, 292
  44, 534, 353, 437
  45, 596, 534, 129
  46, 690, 638, 153
  47, 812, 752, 789
  48, 597, 213, 535
  49, 599, 597, 535
  50, 589, 214, 527
  51, 561, 324, 540
  52, 322,   9,   8
  53, 482, 328,   7
  54, 483,   5, 326
  55, 837, 178, 477
  56, 555, 477, 499
  57, 354,  29, 260
  58, 418, 354, 260
  59, 355,  30, 261
  60, 419, 355, 261
  61, 567, 509, 211
  62, 655, 164, 549
  63, 483, 164, 482
  64,   5,   4, 178
  65, 323, 178,   4
  66, 539, 323, 239
  67, 357, 258, 259
  68, 357, 356, 258
  69, 562, 323, 539
  70, 321,   3,   2
  71, 479, 321, 224
  72, 327, 224,   1
  73, 781, 327, 481
  74,   2,   1, 224
  75, 331, 320, 241
  76, 358,  15, 244
  77, 334, 244,  16
  78, 644, 486, 196
  79, 769, 677, 747
  80, 359,  16, 245
  81, 407, 359, 245
  82, 661, 548, 645
  83, 733, 235, 661
  84, 329,  17, 246
  85, 335, 197, 329
  86, 737, 729, 665
  87, 777, 234, 729
  88, 360,  18, 248
  89, 489, 336, 199
  90, 551, 489, 199
  91, 852, 793, 821
  92, 343, 336,  19
  93, 345, 343, 249
  94, 563, 505, 200
  95, 755, 232, 715
  96, 361, 345,  20
  97, 409, 361, 250
  98, 579, 515, 201
  99, 705, 629, 685
 100, 362,  21, 251
 101, 410, 362, 251
 102, 587, 525, 202
 103, 702, 633, 691
 104, 363,  22, 252
 105, 533, 363, 411
 106, 595, 533, 203
 107, 699, 229, 637
 108, 364,  23, 253
 109, 531, 364, 412
 110, 603, 531, 204
 111, 813, 749, 787
 112, 365,  24, 254
 113, 521, 365, 413
 114, 615, 521, 205
 115, 810, 722, 116
 116, 366,  25, 255
 117, 511, 366, 414
 118, 657, 511, 206
 119, 741, 226, 667
 120, 367,  26, 256
 121, 501, 367, 415
 122, 744, 671, 479
 123, 671, 501, 479
 124, 368,  27, 257
 125, 538, 416, 208
 126, 321,   2, 224
 127, 369,  31, 262
 128, 420, 369, 262
 129, 617, 519, 583
 130, 370,  32, 263
 131, 371,  35, 266
 132, 517, 371, 424
 133, 619, 517, 216
 134, 808, 800, 720
 135, 706, 630, 686
 136, 621, 516, 580
 137, 372, 346,  59
 138, 435, 372, 290
 139, 373,  36, 267
 140, 507, 373, 425
 141, 652, 507, 217
 142, 758, 680, 186
 143, 756, 157, 716
 144, 648, 506, 564
 145, 344, 342,  58
 146, 346, 344, 289
 147, 374,  37, 268
 148, 497, 374, 426
 149, 649, 497, 218
 150, 822, 792, 735
 151, 851, 794, 822
 152, 552, 124, 490
 153, 375,  57, 288
 154, 490, 342, 125
 155, 376,  38, 269
 156, 427, 218, 376
 157, 740, 731, 669
 158, 847, 731, 188
 159, 778, 159, 730
 160, 836, 730, 738
 161, 341, 330, 286
 162, 341, 123, 330
 163, 377,  39, 271
 164, 429, 377, 271
 165, 545, 493, 220
 166, 850, 826, 786
 167, 734, 160, 662
 168, 547, 122, 496
 169, 433, 285,  56
 170, 433, 378, 285
 171, 379,  40, 272
 172, 430, 379, 272
 173, 557, 503, 221
 174, 762, 678, 190
 175, 770, 676, 746
 176, 559, 121, 488
 177, 380, 284, 340
 178, 340, 284,  55
 179, 381,  41, 273
 180, 431, 381, 273
 181, 575, 513, 222
 182, 683, 627, 191
 183, 763, 717, 176
 184, 577, 120, 492
 185, 382, 283, 339
 186, 339, 283,  54
 187, 383,  42, 274
 188, 432, 383, 274
 189, 571, 523, 223
 190, 713, 674, 639
 191, 709, 659, 162
 192, 573, 542, 119
 193, 384, 282, 338
 194, 338, 282,  53
 195, 385,  43, 275
 196, 469, 276,  46
 197, 543, 464, 470
 198, 765, 713, 192
 199, 468, 467,  49
 200, 542, 468, 472
 201, 337, 281,  52
 202, 460, 280, 337
 203, 386,  62, 293
 204, 532, 386, 438
 205, 604, 532, 130
 206, 814, 788, 152
 207, 697, 636, 694
 208, 605, 530, 592
 209, 592, 530, 213
 210, 387,  63, 294
 211, 522, 387, 439
 212, 616, 522, 131
 213, 832, 721, 809
 214, 703, 631, 687
 215, 687, 631, 181
 216, 388,  64, 295
 217, 512, 388, 440
 218, 658, 512, 132
 219, 806, 711, 165
 220, 742, 151, 668
 221, 389,  65, 296
 222, 502, 389, 441
 223, 743, 672, 480
 224, 328, 149,   7
 225, 390,  66, 297
 226, 537, 442, 134
 227, 391, 349, 298
 228, 324,  90,  10
 229, 838,  90, 478
 230, 656, 118, 550
 231, 704, 632, 688
 232, 698, 635, 693
 233, 811, 751, 790
 234, 803, 723, 114
 235, 829, 799, 807
 236, 767, 679, 757
 237, 736,  98, 664
 238, 779,  99, 732
 239, 849, 783, 820
 240, 745, 101, 675
 241, 707, 628, 684
 242, 673, 103, 640
 243, 461,  85, 318
 244, 475, 461, 318
 245, 392,  82, 315
 246, 473, 316,  84
 247, 474, 462, 317
 248, 613, 147, 524
 249, 625, 514, 576
 250, 642, 504, 558
 251, 843, 833, 144
 252, 739, 670, 143
 253, 553, 142, 498
 254, 565, 141, 508
 255, 581, 140, 518
 256, 590, 139, 528
 257, 598, 138, 536
 258, 606, 529, 591
 259, 618, 520, 584
 260, 654, 510, 568
 261, 500, 478,  89
 262, 556, 478, 500
 263, 444, 393, 300
 264, 393,  68, 300
 265, 394,  81, 314
 266, 458, 394, 314
 267, 572, 524, 148
 268, 395,  80, 313
 269, 457, 395, 313
 270, 576, 514, 147
 271, 396,  79, 312
 272, 456, 396, 312
 273, 558, 504, 146
 274, 397,  78, 311
 275, 455, 397, 311
 276, 546, 494, 145
 277, 453, 398, 309
 278, 453, 143, 398
 279, 833, 732, 739
 280, 452, 399, 308
 281, 498, 452, 143
 282, 650, 498, 143
 283, 544, 462, 474
 284, 540, 324, 240
 285, 714, 673, 640
 286, 684, 628, 103
 287, 761, 675, 102
 288, 820, 783, 108
 289, 848, 732, 100
 290, 821, 791, 736
 291, 757, 679,  98
 292, 807, 799, 719
 293, 815, 723, 803
 294, 811, 790,  95
 295, 693, 635,  94
 296, 688, 632,  93
 297, 754, 712, 656
 298, 484,  11, 325
 299, 484, 118, 481
 300, 588, 526, 128
 301, 601, 128, 534
 302, 593, 129, 532
 303, 585, 130, 522
 304, 569, 131, 512
 305, 672, 502, 480
 306, 568, 510, 136
 307, 445, 405, 301
 308, 400,  70, 302
 309, 446, 400, 302
 310, 401,  71, 303
 311, 447, 406, 138
 312, 591, 529, 138
 313, 584, 520, 137
 314, 600, 598, 536
 315, 536, 406, 448
 316, 449, 403, 140
 317, 528, 402, 449
 318, 403,  74, 306
 319, 518, 403, 450
 320, 620, 518, 141
 321, 608, 528, 140
 322, 508, 404, 451
 323, 404,  75, 307
 324, 809, 721, 166
 325, 814, 750, 788
 326, 692, 634, 154
 327, 700, 154, 638
 328, 580, 516, 127
 329, 564, 506, 126
 330, 552, 490, 125
 331, 738, 730, 666
 332, 662, 547, 646
 333, 643, 488, 122
 334, 624, 492, 121
 335, 612, 573, 487
 336, 472, 468, 279
 337, 480, 322, 149
 338, 651, 508, 142
 339, 694, 636, 182
 340, 804, 724, 168
 341, 812, 789, 183
 342, 686, 630, 155
 343, 760, 716, 156
 344, 822, 794, 171
 345, 856, 778, 846
 346, 819, 784, 734
 347, 746, 676, 160
 348, 802, 717, 763
 349, 772, 682, 709
 350, 797, 471, 467
 351, 653, 509, 567
 352, 837, 555, 179
 353, 830, 800, 808
 354, 768, 680, 758
 355, 735, 186, 663
 356, 780, 187, 731
 357, 850, 786, 819
 358, 748, 189, 678
 359, 708, 627, 683
 360, 674, 191, 639
 361, 463,  47, 278
 362, 574, 541, 193
 363, 611, 574, 485
 364, 710, 681, 660
 365, 578, 194, 491
 366, 560, 195, 486
 367, 548, 196, 495
 368, 737, 665, 197
 369, 551, 198, 489
 370, 647, 505, 563
 371, 622, 515, 579
 372, 610, 525, 587
 373, 602, 202, 533
 374, 594, 203, 531
 375, 586, 204, 521
 376, 570, 205, 511
 377, 582, 215, 517
 378, 566, 216, 507
 379, 554, 217, 497
 380, 740, 669, 218
 381, 545, 219, 493
 382, 641, 503, 557
 383, 626, 513, 575
 384, 614, 222, 523
 385, 470, 464, 277
 386, 405,  69, 301
 387, 529, 447, 138
 388,  90,  11,  10
 389, 538, 539,   3
 390, 537, 540,   9
 391, 347, 331,  13
 392, 348, 332,  14
 393, 358, 333,  15
 394, 359, 334,  16
 395, 407,  17, 329
 396, 408, 335, 247
 397, 408, 247,  18
 398, 336, 248,  19
 399, 345, 249,  20
 400, 409, 250,  21
 401, 410, 251,  22
 402, 411,  23, 364
 403, 412,  24, 365
 404, 413,  25, 366
 405, 414,  26, 367
 406, 415,  27, 368
 407, 416,  28, 356
 408, 562, 356, 357
 409, 417, 259,  29
 410, 418, 260,  30
 411, 419, 261,  31
 412, 420, 262,  32
 413, 421,  33, 350
 414, 422,  34, 351
 415, 423,  35, 371
 416, 424,  36, 373
 417, 425,  37, 374
 418, 426,  38, 376
 419, 428, 427, 270
 420, 428, 270,  39
 421, 429, 271,  40
 422, 430, 272,  41
 423, 431, 273,  42
 424, 432, 274,  43
 425, 275,  45, 276
 426, 469, 464, 223
 427, 470, 277,  47
 428, 471, 278,  48
 429, 472,  50, 460
 430, 280,  51, 281
 431, 384, 337,  52
 432, 382, 338,  53
 433, 380, 339,  54
 434, 378, 340,  55
 435, 433,  56, 330
 436, 434, 341, 287
 437, 434, 287,  57
 438, 342, 288,  58
 439, 346, 289,  59
 440, 435, 290,  60
 441, 436, 291,  61
 442, 437,  62, 386
 443, 438,  63, 387
 444, 439,  64, 388
 445, 440,  65, 389
 446, 441,  66, 390
 447, 442,  67, 349
 448, 561, 349, 391
 449, 443, 299,  68
 450, 444, 300,  69
 451, 445, 301,  70
 452, 446, 302,  71
 453, 447,  72, 406
 454, 448,  73, 402
 455, 449,  74, 403
 456, 450,  75, 404
 457, 451,  76, 399
 458, 452,  77, 398
 459, 454, 453, 310
 460, 454, 310,  78
 461, 455, 311,  79
 462, 456, 312,  80
 463, 457, 313,  81
 464, 458, 314,  82
 465, 315,  83, 316
 466, 473, 462, 148
 467, 474, 317,  85
 468, 475, 318,  86
 469, 476,  88, 459
 470, 320,  44, 241
 471, 538, 207, 416
 472, 538, 321, 207
 473, 537, 322, 133
 474, 322,   8, 149
 475, 477, 323, 209
 476, 323,   4, 239
 477, 478, 324,  89
 478, 324,  10, 240
 479, 325,  11,  90
 480, 550, 325,  91
 481, 326,   5, 178
 482, 549, 326, 179
 483, 744, 225, 671
 484, 481,   1,  12
 485, 482,   7,   6
 486, 782, 328, 482
 487, 335, 329, 246
 488, 495, 359, 407
 489, 496, 378, 433
 490, 330,  56, 286
 491, 331, 241,  13
 492, 459, 331, 193
 493, 485, 332, 194
 494, 485, 347, 332
 495, 491, 333, 195
 496, 491, 348, 333
 497, 486, 334, 196
 498, 486, 358, 334
 499, 335, 246, 247
 500, 737, 335, 198
 501, 343,  19, 249
 502, 489, 360, 336
 503, 460, 337, 119
 504, 337, 280, 281
 505, 487, 338, 120
 506, 487, 384, 338
 507, 492, 339, 121
 508, 492, 382, 339
 509, 488, 340, 122
 510, 488, 380, 340
 511, 341, 286, 287
 512, 738, 341, 124
 513, 344,  58, 289
 514, 490, 375, 342
 515, 505, 343, 345
 516, 343, 199, 336
 517, 506, 344, 346
 518, 344, 125, 342
 519, 361,  20, 250
 520, 505, 345, 200
 521, 372,  59, 290
 522, 506, 346, 126
 523, 347, 193, 331
 524, 347,  13, 242
 525, 348, 243, 333
 526, 348, 194, 332
 527, 391, 298, 299
 528, 442, 133, 390
 529, 530, 421, 213
 530, 350,  33, 264
 531, 423, 371, 215
 532, 535, 422, 214
 533, 526, 352, 436
 534, 435, 352, 127
 535, 437, 386, 129
 536, 436, 353, 128
 537, 499, 354, 418
 538, 417, 354, 209
 539, 509, 355, 419
 540, 418, 355, 210
 541, 416, 207, 368
 542, 356,  28, 258
 543, 417, 357, 259
 544, 562, 539, 208
 545, 358, 244, 334
 546, 358, 195, 333
 547, 407, 245,  17
 548, 359, 196, 334
 549, 408, 360, 198
 550, 360, 248, 336
 551, 515, 361, 409
 552, 361, 200, 345
 553, 525, 362, 410
 554, 409, 362, 201
 555, 411, 364, 203
 556, 410, 363, 202
 557, 412, 365, 204
 558, 533, 411, 203
 559, 413, 366, 205
 560, 531, 412, 204
 561, 414, 367, 206
 562, 521, 413, 205
 563, 415, 368, 207
 564, 511, 414, 206
 565, 416, 368, 257
 566, 501, 415, 207
 567, 519, 369, 420
 568, 419, 369, 211
 569, 530, 370, 421
 570, 420, 370, 212
 571, 424, 373, 216
 572, 527, 423, 215
 573, 516, 372, 435
 574, 372, 126, 346
 575, 425, 374, 217
 576, 517, 424, 216
 577, 426, 376, 218
 578, 507, 425, 217
 579, 434, 375, 124
 580, 375, 288, 342
 581, 427, 376, 269
 582, 497, 426, 218
 583, 493, 377, 429
 584, 428, 377, 219
 585, 378, 122, 340
 586, 378,  55, 285
 587, 503, 379, 430
 588, 429, 379, 220
 589, 380, 121, 339
 590, 380,  54, 284
 591, 513, 381, 431
 592, 430, 381, 221
 593, 382, 120, 338
 594, 382,  53, 283
 595, 523, 383, 432
 596, 431, 383, 222
 597, 384, 119, 337
 598, 384,  52, 282
 599, 432, 385, 223
 600, 385, 275, 276
 601, 438, 387, 130
 602, 534, 437, 129
 603, 439, 388, 131
 604, 532, 438, 130
 605, 440, 389, 132
 606, 522, 439, 131
 607, 441, 390, 133
 608, 512, 440, 132
 609, 442, 390, 297
 610, 502, 441, 133
 611, 443, 391, 299
 612, 561, 540, 134
 613, 458, 392, 148
 614, 392, 315, 316
 615, 500, 393, 444
 616, 443, 393,  89
 617, 524, 394, 458
 618, 457, 394, 147
 619, 514, 395, 457
 620, 456, 395, 146
 621, 504, 396, 456
 622, 455, 396, 145
 623, 494, 397, 455
 624, 454, 397, 144
 625, 498, 399, 452
 626, 398,  77, 309
 627, 508, 451, 142
 628, 399,  76, 308
 629, 520, 400, 446
 630, 445, 400, 136
 631, 529, 401, 447
 632, 446, 401, 137
 633, 536, 448, 139
 634, 402,  73, 305
 635, 450, 404, 141
 636, 528, 449, 140
 637, 451, 404, 307
 638, 518, 450, 141
 639, 510, 405, 445
 640, 444, 405, 135
 641, 406,  72, 304
 642, 448, 406, 304
 643, 407, 329, 197
 644, 495, 407, 197
 645, 408,  18, 360
 646, 408, 198, 335
 647, 409,  21, 362
 648, 515, 409, 201
 649, 410,  22, 363
 650, 525, 410, 202
 651, 411, 363, 252
 652, 411, 252,  23
 653, 412, 364, 253
 654, 412, 253,  24
 655, 413, 365, 254
 656, 413, 254,  25
 657, 414, 366, 255
 658, 414, 255,  26
 659, 415, 367, 256
 660, 415, 256,  27
 661, 416, 257,  28
 662, 416, 356, 208
 663, 417,  29, 354
 664, 562, 417, 209
 665, 418,  30, 355
 666, 499, 418, 210
 667, 419,  31, 369
 668, 509, 419, 211
 669, 420,  32, 370
 670, 519, 420, 212
 671, 421, 263,  33
 672, 421, 350, 213
 673, 422, 350, 264
 674, 422, 264,  34
 675, 423, 351, 265
 676, 423, 265,  35
 677, 424, 371, 266
 678, 424, 266,  36
 679, 425, 373, 267
 680, 425, 267,  37
 681, 426, 374, 268
 682, 426, 268,  38
 683, 427, 269, 270
 684, 740, 427, 219
 685, 428,  39, 377
 686, 428, 219, 427
 687, 429,  40, 379
 688, 493, 429, 220
 689, 430,  41, 381
 690, 503, 430, 221
 691, 431,  42, 383
 692, 513, 431, 222
 693, 432,  43, 385
 694, 523, 432, 223
 695, 433, 330, 123
 696, 496, 433, 123
 697, 434,  57, 375
 698, 434, 124, 341
 699, 435,  60, 352
 700, 516, 435, 127
 701, 436,  61, 353
 702, 526, 436, 128
 703, 437, 353, 292
 704, 437, 292,  62
 705, 438, 386, 293
 706, 438, 293,  63
 707, 439, 387, 294
 708, 439, 294,  64
 709, 440, 388, 295
 710, 440, 295,  65
 711, 441, 389, 296
 712, 441, 296,  66
 713, 442, 297,  67
 714, 442, 349, 134
 715, 443,  68, 393
 716, 561, 443,  89
 717, 444,  69, 405
 718, 500, 444, 135
 719, 445,  70, 400
 720, 510, 445, 136
 721, 446,  71, 401
 722, 520, 446, 137
 723, 447, 401, 303
 724, 447, 303,  72
 725, 448, 304,  73
 726, 448, 402, 139
 727, 449, 402, 305
 728, 449, 305,  74
 729, 450, 403, 306
 730, 450, 306,  75
 731, 451, 307,  76
 732, 451, 399, 142
 733, 452, 308,  77
 734, 452, 398, 143
 735, 453, 309, 310
 736, 739, 453, 144
 737, 454,  78, 397
 738, 454, 144, 453
 739, 455,  79, 396
 740, 494, 455, 145
 741, 456,  80, 395
 742, 504, 456, 146
 743, 457,  81, 394
 744, 514, 457, 147
 745, 458,  82, 392
 746, 524, 458, 148
 747, 541, 476, 193
 748, 459,  88, 320
 749, 542, 472, 119
 750, 460,  50, 280
 751, 766, 714, 104
 752, 474, 461, 104
 753, 473, 148, 392
 754, 462,  84, 317
 755, 470, 463, 192
 756, 471, 463, 278
 757, 469, 223, 385
 758, 464,  46, 277
 759, 798, 475, 465
 760, 465,  86,  87
 761, 466, 238, 465
 762, 466,  87, 319
 763, 467,  48,  49
 764, 797, 163, 682
 765, 468, 163, 467
 766, 468,  49, 279
 767, 469, 385, 276
 768, 469,  46, 464
 769, 470,  47, 463
 770, 543, 470, 192
 771, 471,  48, 467
 772, 765, 471, 177
 773, 472, 279,  50
 774, 472, 460, 119
 775, 473, 392, 316
 776, 473,  84, 462
 777, 474,  85, 461
 778, 544, 474, 104
 779, 475,  86, 465
 780, 766, 475, 105
 781, 476, 319,  88
 782, 476, 459, 193
 783, 477, 178, 323
 784, 499, 477, 209
 785, 838, 556,  91
 786, 478,  90, 324
 787, 479, 207, 321
 788, 744, 224, 327
 789, 480, 133, 322
 790, 743, 149, 328
 791, 484, 481,  12
 792, 781, 481, 118
 793, 483, 482,   6
 794, 782, 482, 164
 795, 483,   6,   5
 796, 549, 483, 326
 797, 484,  12,  11
 798, 550, 484, 325
 799, 611, 194, 578
 800, 485, 193, 347
 801, 644, 560, 486
 802, 486, 195, 358
 803, 612, 120, 577
 804, 487, 119, 384
 805, 643, 559, 488
 806, 488, 121, 380
 807, 647, 551, 199
 808, 489, 198, 360
 809, 648, 552, 125
 810, 490, 124, 375
 811, 623, 578, 491
 812, 491, 194, 348
 813, 624, 577, 492
 814, 492, 120, 382
 815, 641, 545, 220
 816, 493, 219, 377
 817, 642, 546, 145
 818, 494, 144, 397
 819, 645, 495, 197
 820, 495, 196, 359
 821, 646, 496, 123
 822, 496, 122, 378
 823, 649, 554, 497
 824, 497, 217, 374
 825, 650, 553, 498
 826, 498, 142, 399
 827, 555, 499, 210
 828, 499, 209, 354
 829, 556, 500, 135
 830, 500,  89, 393
 831, 501, 207, 479
 832, 501, 206, 367
 833, 502, 133, 480
 834, 502, 132, 389
 835, 626, 557, 221
 836, 503, 220, 379
 837, 625, 558, 146
 838, 504, 145, 396
 839, 622, 563, 200
 840, 505, 199, 343
 841, 621, 564, 126
 842, 506, 125, 344
 843, 652, 566, 507
 844, 507, 216, 373
 845, 651, 565, 508
 846, 508, 141, 404
 847, 617, 567, 211
 848, 509, 210, 355
 849, 618, 568, 136
 850, 510, 135, 405
 851, 657, 570, 511
 852, 511, 205, 366
 853, 658, 569, 512
 854, 512, 131, 388
 855, 614, 575, 222
 856, 513, 221, 381
 857, 613, 576, 147
 858, 514, 146, 395
 859, 610, 579, 201
 860, 515, 200, 361
 861, 609, 580, 127
 862, 516, 126, 372
 863, 619, 582, 517
 864, 517, 215, 371
 865, 620, 581, 518
 866, 518, 140, 403
 867, 605, 583, 212
 868, 519, 211, 369
 869, 606, 584, 137
 870, 520, 136, 400
 871, 615, 586, 521
 872, 521, 204, 365
 873, 616, 585, 522
 874, 522, 130, 387
 875, 571, 223, 543
 876, 523, 222, 383
 877, 572, 148, 544
 878, 524, 147, 394
 879, 602, 587, 202
 880, 525, 201, 362
 881, 601, 588, 128
 882, 526, 127, 352
 883, 607, 589, 527
 884, 527, 214, 351
 885, 608, 590, 528
 886, 528, 139, 402
 887, 598, 591, 138
 888, 529, 137, 401
 889, 597, 592, 213
 890, 530, 212, 370
 891, 603, 594, 531
 892, 531, 203, 364
 893, 604, 593, 532
 894, 532, 129, 386
 895, 595, 203, 594
 896, 533, 202, 363
 897, 596, 129, 593
 898, 534, 128, 353
 899, 599, 214, 589
 900, 535, 213, 350
 901, 600, 139, 590
 902, 536, 138, 406
 903, 540, 537, 134
 904, 537,   9, 322
 905, 539, 538, 208
 906, 538,   3, 321
 907,   3, 539, 239
 908, 562, 208, 356
 909,   9, 540, 240
 910, 561, 134, 349
 911, 574, 193, 485
 912, 541, 238, 466
 913, 573, 119, 487
 914, 542, 163, 468
 915, 571, 543, 192
 916, 543, 223, 464
 917, 572, 544, 104
 918, 544, 148, 462
 919, 826, 545, 189
 920, 844, 834, 219
 921, 825, 546, 101
 922, 546, 144, 494
 923, 646, 547, 496
 924, 643, 547, 160
 925, 645, 548, 495
 926, 644, 548, 235
 927, 655, 549, 179
 928, 549, 164, 483
 929, 656, 550,  91
 930, 550, 118, 484
 931, 828, 551, 232
 932, 841, 835, 198
 933, 827, 552, 157
 934, 842, 836, 124
 935, 664, 553, 650
 936, 651, 553,  98
 937, 663, 554, 649
 938, 652, 554, 186
 939, 653, 210, 509
 940, 837, 179, 326
 941, 654, 135, 510
 942, 838,  91, 325
 943, 678, 557, 190
 944, 678, 641, 557
 945, 675, 558, 102
 946, 675, 642, 558
 947, 676, 559, 643
 948, 624, 559, 161
 949, 677, 560, 644
 950, 623, 560, 236
 951, 561, 391, 443
 952, 561,  89, 324
 953, 562, 357, 417
 954, 562, 209, 323
 955, 715, 563, 231
 956, 715, 647, 563
 957, 716, 564, 156
 958, 716, 648, 564
 959, 679, 565, 651
 960, 620, 565,  97
 961, 680, 566, 652
 962, 619, 566, 185
 963, 695, 653, 567
 964, 695, 567, 180
 965, 696, 654, 568
 966, 696, 568,  92
 967, 668, 569, 658
 968, 616, 569, 151
 969, 667, 570, 657
 970, 615, 570, 226
 971, 639, 571, 192
 972, 639, 614, 571
 973, 640, 572, 104
 974, 640, 613, 572
 975, 659, 573, 612
 976, 573, 163, 542
 977, 660, 574, 611
 978, 574, 238, 541
 979, 627, 626, 575
 980, 627, 575, 191
 981, 628, 625, 576
 982, 628, 576, 103
 983, 795, 577, 624
 984, 612, 577, 162
 985, 796, 578, 623
 986, 611, 578, 237
 987, 629, 622, 579
 988, 629, 579, 230
 989, 630, 621, 580
 990, 630, 580, 155
 991, 829, 581, 620
 992, 608, 581,  96
 993, 830, 582, 619
 994, 607, 582, 184
 995, 631, 617, 583
 996, 631, 583, 181
 997, 632, 618, 584
 998, 632, 584,  93
 999, 840, 585, 616
1000, 604, 585, 152
1001, 839, 586, 615
1002, 603, 586, 227
1003, 633, 610, 587
1004, 633, 587, 229
1005, 634, 609, 588
1006, 634, 588, 154
1007, 818, 589, 607
1008, 599, 589, 183
1009, 817, 590, 608
1010, 600, 590,  95
1011, 635, 606, 591
1012, 635, 591,  94
1013, 636, 605, 592
1014, 636, 592, 182
1015, 788, 593, 604
1016, 596, 593, 153
1017, 787, 594, 603
1018, 595, 594, 228
1019, 637, 595, 228
1020, 637, 602, 595
1021, 638, 596, 153
1022, 638, 601, 596
1023, 789, 597, 599
1024, 597, 182, 592
1025, 790, 598, 600
1026, 598,  94, 591
1027, 599, 535, 214
1028, 789, 599, 183
1029, 600, 536, 139
1030, 790, 600,  95
1031, 601, 154, 588
1032, 601, 534, 596
1033, 602, 229, 587
1034, 602, 533, 595
1035, 603, 204, 586
1036, 787, 603, 227
1037, 604, 130, 585
1038, 788, 604, 152
1039, 605, 181, 583
1040, 605, 212, 530
1041, 606,  93, 584
1042, 606, 137, 529
1043, 607, 215, 582
1044, 818, 607, 184
1045, 608, 140, 581
1046, 817, 608,  96
1047, 609, 155, 580
1048, 609, 127, 526
1049, 610, 230, 579
1050, 610, 201, 525
1051, 611, 485, 194
1052, 660, 611, 237
1053, 612, 487, 120
1054, 659, 612, 162
1055, 613, 103, 576
1056, 613, 524, 572
1057, 614, 191, 575
1058, 614, 523, 571
1059, 615, 205, 570
1060, 839, 615, 226
1061, 616, 131, 569
1062, 840, 616, 151
1063, 617, 180, 567
1064, 617, 211, 519
1065, 618,  92, 568
1066, 618, 136, 520
1067, 619, 216, 566
1068, 830, 619, 185
1069, 620, 141, 565
1070, 829, 620,  97
1071, 621, 156, 564
1072, 621, 126, 516
1073, 622, 231, 563
1074, 622, 200, 515
1075, 623, 195, 560
1076, 796, 623, 236
1077, 624, 121, 559
1078, 795, 624, 161
1079, 625, 102, 558
1080, 625, 146, 514
1081, 626, 190, 557
1082, 626, 221, 513
1083, 683, 191, 674
1084, 627, 190, 626
1085, 684, 103, 673
1086, 628, 102, 625
1087, 702, 685, 230
1088, 629, 231, 622
1089, 701, 686, 155
1090, 630, 156, 621
1091, 697, 687, 181
1092, 631, 180, 617
1093, 698, 688,  93
1094, 632,  92, 618
1095, 699, 691, 229
1096, 633, 230, 610
1097, 700, 692, 154
1098, 634, 155, 609
1099, 751, 693,  94
1100, 635,  93, 606
1101, 752, 694, 182
1102, 636, 181, 605
1103, 749, 689, 228
1104, 637, 229, 602
1105, 750, 690, 153
1106, 638, 154, 601
1107, 765, 192, 463
1108, 639, 191, 614
1109, 766, 104, 461
1110, 640, 103, 613
1111, 641, 189, 545
1112, 641, 220, 503
1113, 642, 101, 546
1114, 642, 145, 504
1115, 643, 122, 547
1116, 676, 643, 160
1117, 644, 196, 548
1118, 677, 644, 235
1119, 665, 645, 197
1120, 665, 661, 645
1121, 666, 646, 123
1122, 666, 662, 646
1123, 647, 232, 551
1124, 647, 199, 505
1125, 648, 157, 552
1126, 648, 125, 506
1127, 669, 649, 218
1128, 669, 663, 649
1129, 670, 650, 143
1130, 670, 664, 650
1131, 651, 142, 553
1132, 679, 651,  98
1133, 652, 217, 554
1134, 680, 652, 186
1135, 653, 179, 555
1136, 653, 555, 210
1137, 654,  91, 556
1138, 654, 556, 135
1139, 695, 655, 179
1140, 753, 655, 695
1141, 696, 656,  91
1142, 754, 656, 696
1143, 671, 657, 206
1144, 667, 657, 225
1145, 672, 658, 132
1146, 668, 658, 150
1147, 709, 682, 659
1148, 659, 163, 573
1149, 660, 238, 574
1150, 710, 660, 237
1151, 733, 661, 234
1152, 661, 235, 548
1153, 734, 662, 159
1154, 662, 160, 547
1155, 735, 663, 187
1156, 663, 186, 554
1157, 736, 664,  99
1158, 664,  98, 553
1159, 835, 729, 737
1160, 665, 234, 661
1161, 666, 159, 662
1162, 738, 666, 123
1163, 805, 741, 712
1164, 667, 226, 570
1165, 806, 742, 711
1166, 668, 151, 569
1167, 834, 731, 740
1168, 669, 187, 663
1169, 739, 732, 670
1170, 670,  99, 664
1171, 671, 225, 657
1172, 671, 206, 501
1173, 672, 150, 658
1174, 672, 132, 502
1175, 771, 673, 714
1176, 684, 673, 106
1177, 772, 674, 713
1178, 683, 674, 176
1179, 761, 745, 675
1180, 675, 101, 642
1181, 784, 746, 160
1182, 676, 161, 559
1183, 785, 747, 235
1184, 677, 236, 560
1185, 762, 748, 678
1186, 678, 189, 641
1187, 791, 757,  98
1188, 679,  97, 565
1189, 792, 758, 186
1190, 680, 185, 566
1191, 798, 681, 105
1192, 681, 238, 660
1193, 797, 682, 177
1194, 682, 163, 659
1195, 717, 683, 176
1196, 717, 708, 683
1197, 718, 684, 106
1198, 718, 707, 684
1199, 719, 685, 113
1200, 719, 705, 685
1201, 720, 686, 169
1202, 720, 706, 686
1203, 721, 687, 166
1204, 721, 703, 687
1205, 722, 688, 116
1206, 722, 704, 688
1207, 727, 689, 115
1208, 727, 699, 689
1209, 728, 690, 167
1210, 728, 700, 690
1211, 723, 691, 114
1212, 723, 702, 691
1213, 724, 692, 168
1214, 724, 701, 692
1215, 725, 693, 115
1216, 725, 698, 693
1217, 726, 694, 167
1218, 726, 697, 694
1219, 753, 695, 180
1220, 695, 179, 653
1221, 754, 696,  92
1222, 696,  91, 654
1223, 697, 166, 687
1224, 697, 181, 636
1225, 698, 116, 688
1226, 698,  93, 635
1227, 699, 114, 691
1228, 699, 637, 689
1229, 700, 168, 692
1230, 700, 638, 690
1231, 701, 169, 686
1232, 701, 155, 634
1233, 702, 113, 685
1234, 702, 230, 633
1235, 753, 703, 165
1236, 703, 180, 631
1237, 754, 704, 117
1238, 704,  92, 632
1239, 759, 705, 112
1240, 705, 231, 629
1241, 760, 706, 170
1242, 706, 156, 630
1243, 761, 707, 107
1244, 707, 102, 628
1245, 762, 708, 175
1246, 708, 190, 627
1247, 763, 709, 162
1248, 772, 709, 176
1249, 764, 710, 237
1250, 771, 710, 106
1251, 742, 164, 711
1252, 711, 164, 655
1253, 712, 118, 656
1254, 805, 712, 117
1255, 713, 639, 192
1256, 772, 713, 177
1257, 714, 640, 104
1258, 771, 714, 105
1259, 759, 755, 715
1260, 715, 232, 647
1261, 760, 756, 716
1262, 716, 157, 648
1263, 763, 176, 709
1264, 717, 175, 708
1265, 764, 106, 710
1266, 718, 107, 707
1267, 815, 807, 113
1268, 719, 112, 705
1269, 816, 808, 169
1270, 720, 170, 706
1271, 814, 809, 166
1272, 721, 165, 703
1273, 813, 810, 116
1274, 722, 117, 704
1275, 811, 803, 114
1276, 723, 113, 702
1277, 812, 804, 168
1278, 724, 169, 701
1279, 749, 725, 115
1280, 725, 116, 698
1281, 750, 726, 167
1282, 726, 166, 697
1283, 751, 727, 115
1284, 727, 114, 699
1285, 752, 728, 167
1286, 728, 168, 700
1287, 845, 729, 233
1288, 729, 234, 665
1289, 846, 730, 158
1290, 730, 159, 666
1291, 847, 780, 731
1292, 731, 187, 669
1293, 848, 779, 732
1294, 732,  99, 670
1295, 823, 234, 777
1296, 823, 820, 733
1297, 824, 159, 778
1298, 824, 819, 734
1299, 780, 735, 187
1300, 822, 735, 172
1301, 779, 736,  99
1302, 821, 736, 110
1303, 737, 197, 335
1304, 835, 737, 198
1305, 738, 123, 341
1306, 836, 738, 124
1307, 739, 143, 453
1308, 833, 739, 144
1309, 740, 218, 427
1310, 834, 740, 219
1311, 741, 667, 225
1312, 781, 741, 225
1313, 742, 668, 150
1314, 782, 742, 150
1315, 743, 480, 149
1316, 782, 743, 328
1317, 744, 479, 224
1318, 781, 744, 327
1319, 774, 745, 761
1320, 783, 745, 108
1321, 773, 770, 746
1322, 773, 746, 174
1323, 774, 769, 747
1324, 774, 747, 108
1325, 773, 748, 762
1326, 786, 748, 174
1327, 749, 115, 689
1328, 787, 749, 228
1329, 750, 167, 690
1330, 788, 750, 153
1331, 751, 115, 693
1332, 790, 751,  94
1333, 752, 167, 694
1334, 789, 752, 182
1335, 753, 180, 703
1336, 753, 165, 711
1337, 754,  92, 704
1338, 754, 117, 712
1339, 775, 755, 759
1340, 793, 755, 111
1341, 776, 756, 760
1342, 794, 756, 171
1343, 775, 767, 757
1344, 775, 757, 111
1345, 776, 768, 758
1346, 776, 758, 171
1347, 759, 231, 705
1348, 775, 759, 112
1349, 760, 156, 706
1350, 776, 760, 170
1351, 761, 102, 707
1352, 774, 761, 107
1353, 762, 190, 708
1354, 773, 762, 175
1355, 795, 763, 162
1356, 802, 763, 795
1357, 796, 764, 237
1358, 801, 764, 796
1359, 765, 463, 471
1360, 765, 177, 713
1361, 766, 461, 475
1362, 766, 105, 714
1363, 799, 767, 112
1364, 767,  97, 679
1365, 800, 768, 170
1366, 768, 185, 680
1367, 801, 769, 107
1368, 769, 236, 677
1369, 802, 770, 175
1370, 770, 161, 676
1371, 771, 105, 681
1372, 771, 106, 673
1373, 772, 177, 682
1374, 772, 176, 674
1375, 773, 174, 748
1376, 773, 175, 770
1377, 774, 108, 745
1378, 774, 107, 769
1379, 775, 111, 755
1380, 775, 112, 767
1381, 776, 171, 756
1382, 776, 170, 768
1383, 845, 777, 729
1384, 823, 777, 109
1385, 846, 778, 730
1386, 824, 778, 173
1387, 853, 779, 848
1388, 779, 110, 736
1389, 854, 780, 847
1390, 780, 172, 735
1391, 781, 118, 741
1392, 781, 225, 744
1393, 782, 164, 742
1394, 782, 150, 743
1395, 849, 825, 783
1396, 783, 101, 745
1397, 784, 174, 746
1398, 784, 160, 734
1399, 785, 108, 747
1400, 785, 235, 733
1401, 786, 189, 748
1402, 819, 786, 174
1403, 787, 228, 594
1404, 813, 227, 810
1405, 788, 153, 593
1406, 814, 152, 809
1407, 789, 182, 597
1408, 812, 183, 804
1409, 790,  94, 598
1410, 811,  95, 803
1411, 791, 111, 757
1412, 791,  98, 736
1413, 792, 171, 758
1414, 792, 186, 735
1415, 821, 793, 111
1416, 852, 828, 793
1417, 851, 827, 794
1418, 794, 157, 756
1419, 802, 795, 161
1420, 795, 162, 577
1421, 801, 796, 236
1422, 796, 237, 578
1423, 797, 177, 471
1424, 797, 467, 163
1425, 798, 105, 475
1426, 798, 465, 238
1427, 799,  97, 767
1428, 799, 112, 719
1429, 800, 185, 768
1430, 800, 170, 720
1431, 801, 236, 769
1432, 801, 107, 718
1433, 802, 161, 770
1434, 802, 175, 717
1435, 817, 803,  95
1436, 817, 815, 803
1437, 818, 804, 183
1438, 818, 816, 804
1439, 831, 117, 722
1440, 805, 226, 741
1441, 832, 165, 721
1442, 806, 151, 742
1443, 807, 719, 113
1444, 829, 807,  96
1445, 808, 720, 169
1446, 830, 808, 184
1447, 840, 832, 809
1448, 840, 809, 152
1449, 839, 831, 810
1450, 839, 810, 227
1451, 811, 114, 727
1452, 811, 727, 751
1453, 812, 168, 728
1454, 812, 728, 752
1455, 813, 116, 725
1456, 813, 725, 749
1457, 814, 166, 726
1458, 814, 726, 750
1459, 815,  96, 807
1460, 815, 113, 723
1461, 816, 184, 808
1462, 816, 169, 724
1463, 817,  95, 590
1464, 817,  96, 815
1465, 818, 183, 589
1466, 818, 184, 816
1467, 819, 174, 784
1468, 850, 173, 847
1469, 820, 108, 785
1470, 849, 109, 848
1471, 821, 111, 791
1472, 855, 852, 110
1473, 822, 171, 792
1474, 856, 851, 172
1475, 823, 109, 820
1476, 823, 733, 234
1477, 824, 173, 819
1478, 824, 734, 159
1479, 843, 825, 100
1480, 825, 101, 783
1481, 844, 826, 188
1482, 826, 189, 786
1483, 842, 827, 158
1484, 827, 157, 794
1485, 841, 828, 233
1486, 828, 232, 793
1487, 829,  96, 581
1488, 829,  97, 799
1489, 830, 184, 582
1490, 830, 185, 800
1491, 831, 226, 805
1492, 831, 805, 117
1493, 832, 151, 806
1494, 832, 806, 165
1495, 843, 144, 546
1496, 833, 100, 732
1497, 844, 219, 545
1498, 834, 188, 731
1499, 841, 198, 551
1500, 835, 233, 729
1501, 842, 124, 552
1502, 836, 158, 730
1503, 837, 326, 178
1504, 837, 477, 555
1505, 838, 325,  90
1506, 838, 478, 556
1507, 839, 227, 586
1508, 839, 226, 831
1509, 840, 152, 585
1510, 840, 151, 832
1511, 841, 551, 828
1512, 841, 233, 835
1513, 842, 552, 827
1514, 842, 158, 836
1515, 843, 546, 825
1516, 843, 100, 833
1517, 844, 545, 826
1518, 844, 188, 834
1519, 852, 845, 233
1520, 855, 853, 777
1521, 851, 846, 158
1522, 856, 854, 778
1523, 850, 847, 188
1524, 854, 847, 173
1525, 849, 848, 100
1526, 853, 848, 109
1527, 849, 820, 109
1528, 849, 100, 825
1529, 850, 819, 173
1530, 850, 188, 826
1531, 851, 822, 172
1532, 851, 158, 827
1533, 852, 821, 110
1534, 852, 233, 828
1535, 853, 109, 777
1536, 853, 110, 779
1537, 854, 173, 778
1538, 854, 172, 780
1539, 855, 845, 852
1540, 855, 110, 853
1541, 856, 846, 851
1542, 856, 172, 854
*Nset, nset=_PickedSet2, internal, generate
   1,  856,    1
*Elset, elset=_PickedSet2, internal, generate
    1,  1542,     1
** Section: Section-1
*Solid Section, elset=_PickedSet2, material=Material-1
1.,
*End Part
**  
**
** ASSEMBLY
**
*Assembly, name=Assembly
**  
*Instance, name=plate-1, part=plate
*End Instance
**  
*Nset, nset=LeftEdgeSet, instance=plate-1
  45,  46,  47,  48,  49,  50,  51, 276, 277, 278, 279, 280
*Elset, elset=LeftEdgeSet, instance=plate-1
 196, 361, 425, 427, 428, 430, 750, 758, 763, 766, 773
*Elset, elset=_LoadSurface_S2, internal, instance=plate-1
 243, 246, 465, 467, 468, 748, 754, 760, 762, 781
*Elset, elset=_LoadSurface_S1, internal, instance=plate-1
 470,
*Surface, type=ELEMENT, name=LoadSurface
_LoadSurface_S2, S2
_LoadSurface_S1, S1
*End Assembly
** 
** MATERIALS
** 
*Material, name=Material-1
*Elastic
 2.9e+07, 0.3
** 
** BOUNDARY CONDITIONS
** 
** Name: BC-LeftEdge Type: Displacement/Rotation
*Boundary
LeftEdgeSet, 1, 1
LeftEdgeSet, 2, 2
** ----------------------------------------------------------------
** 
** STEP: Step-1
** 
*Step, name=Step-1, nlgeom=NO
*Static
1., 1., 1e-05, 1.
** 
** LOADS
** 
** Name: Load-1   Type: Pressure
*Dsload
LoadSurface, P, -1000.
** 
** OUTPUT REQUESTS
** 
*Restart, write, frequency=0
** 
** FIELD OUTPUT: F-Output-1
** 
*Output, field, variable=PRESELECT
** 
** HISTORY OUTPUT: H-Output-1
** 
*Output, history, variable=PRESELECT
*End Step
