*Heading
** Job name: plate_square8__9499 Model name: PlateModel
** Generated by: Abaqus/CAE 2022
*Preprint, echo=NO, model=NO, history=NO, contact=NO
**
** PARTS
**
*Part, name=plate
*Node
      1,   2.22222233,           4.
      2, -0.444444448,           4.
      3,  -2.22222233,           4.
      4,           4.,           4.
      5,          -4.,           4.
      6,           4.,  -2.22222233
      7,           4.,  0.444444448
      8,           4.,   2.22222233
      9,           4.,          -4.
     10,  -2.22222233,          -4.
     11,  0.444444448,          -4.
     12,   2.22222233,          -4.
     13,          -4.,          -4.
     14,          -4.,   2.22222233
     15,          -4., -0.444444448
     16,          -4.,  -2.22222233
     17,   28.2089558,           5.
     18,   26.4179096,           5.
     19,   24.6268654,           5.
     20,   22.8358212,           5.
     21,   21.0447769,           5.
     22,   18.3582096,           5.
     23,   16.5671635,           5.
     24,   14.7761192,           5.
     25,    12.985075,           5.
     26,   11.1940298,           5.
     27,   9.40298462,           5.
     28,   7.61194038,           5.
     29,   5.82089567,           5.
     30,   4.02985096,           5.
     31,   2.23880601,           5.
     32,  0.447761208,           5.
     33,  -2.23880601,           5.
     34,  -4.02985096,           5.
     35,  -5.82089567,           5.
     36,  -7.61194038,           5.
     37,  -9.40298462,           5.
     38,  -11.1940298,           5.
     39,   -12.985075,           5.
     40,  -14.7761192,           5.
     41,  -16.5671635,           5.
     42,  -18.3582096,           5.
     43,  -21.0447769,           5.
     44,  -22.8358212,           5.
     45,  -24.6268654,           5.
     46,  -26.4179096,           5.
     47,  -28.2089558,           5.
     48,          30.,           5.
     49,         -30.,           5.
     50,         -30.,   3.18181825
     51,         -30.,   1.36363637
     52,         -30., -0.454545468
     53,         -30.,  -1.36363637
     54,         -30.,  -3.18181825
     55,         -30.,          -5.
     56,  -28.2089558,          -5.
     57,  -26.4179096,          -5.
     58,  -24.6268654,          -5.
     59,  -22.8358212,          -5.
     60,  -21.0447769,          -5.
     61,  -18.3582096,          -5.
     62,  -16.5671635,          -5.
     63,  -14.7761192,          -5.
     64,   -12.985075,          -5.
     65,  -11.1940298,          -5.
     66,  -9.40298462,          -5.
     67,  -7.61194038,          -5.
     68,  -5.82089567,          -5.
     69,  -4.02985096,          -5.
     70,  -2.23880601,          -5.
     71, -0.447761208,          -5.
     72,   2.23880601,          -5.
     73,   4.02985096,          -5.
     74,   5.82089567,          -5.
     75,   7.61194038,          -5.
     76,   9.40298462,          -5.
     77,   11.1940298,          -5.
     78,    12.985075,          -5.
     79,   14.7761192,          -5.
     80,   16.5671635,          -5.
     81,   18.3582096,          -5.
     82,   21.0447769,          -5.
     83,   22.8358212,          -5.
     84,   24.6268654,          -5.
     85,   26.4179096,          -5.
     86,   28.2089558,          -5.
     87,          30.,          -5.
     88,          30.,  -3.18181825
     89,          30.,  -1.36363637
     90,          30.,  0.454545468
     91,          30.,   1.36363637
     92,          30.,   3.18181825
     93,   5.61342907,   3.32204866
     94,   7.57506752,   3.40623331
     95,   9.39791489,   3.40385556
     96,   11.2113886,    3.4182353
     97,     13.03687,   3.43075991
     98,    14.892066,   3.42991853
     99,   16.7569695,   3.45799232
    100,    18.553791,   3.33307099
    101,   20.7115669,   3.51478171
    102,   22.6214905,   3.45621371
    103,   24.4910316,     3.427773
    104,   26.3653851,   3.40023088
    105,   28.3731289,   3.26241279
    106,  -28.3633289,   3.27442813
    107,  -26.3579655,   3.41541052
    108,    -24.49716,   3.43391728
    109,  -22.6281509,   3.46195698
    110,  -20.8355408,   3.33726668
    111,  -18.6797028,   3.51788759
    112,  -16.7656937,   3.45056987
    113,  -14.9004526,   3.41368484
    114,  -13.0397749,    3.3970778
    115,  -11.2083569,   3.38952184
    116,  -9.38881588,   3.40514469
    117,  -7.52266741,   3.42179132
    118,   -5.5730896,   3.48497605
    119,    5.5905242,   1.72567403
    120,    7.5759964,   1.71479511
    121,   9.41273117,   1.73116231
    122,   11.2272854,   1.78436124
    123,   13.0802155,   1.80266631
    124,   14.9478245,   1.76173377
    125,   16.8431129,   1.71987176
    126,   18.7010765,   1.73177814
    127,   20.6482048,   1.53189611
    128,    22.321867,   1.70756531
    129,   24.3584099,   1.74755239
    130,   26.2837029,    1.6841203
    131,   28.2999954,   1.52298129
    132,   5.71694946,  -1.54193342
    133,    7.3468461,    -1.698264
    134,   9.35100365,  -1.69600999
    135,   11.2101889,    -1.629444
    136,    13.103446,  -1.62471008
    137,   15.0217314,  -1.70679665
    138,   17.0895824,  -1.68887985
    139,   18.7722149,  -1.72930944
    140,   20.6905918,  -1.70846426
    141,   22.5319633,  -1.72226524
    142,   24.4259472,  -1.76440704
    143,   26.2771034,  -1.77524459
    144,   28.2602196,  -1.57563329
    145,   28.0674095, -0.0474565476
    146,   26.2320251, -0.0691732615
    147,   24.3703766, -0.00307609816
    148,   22.5533886, 0.0282213744
    149,   20.5622578, -0.0425971635
    150,   18.7006569, -0.157507598
    151,   16.8069782, -0.0076663252
    152,   15.0069876, 0.0288582575
    153,   13.1185369,   0.12933512
    154,   11.2192926,  0.112420142
    155,    9.3706255, 0.0429677702
    156,   7.39230299, 0.0450587124
    157,   5.55345917, 0.0567234755
    158,    5.5730896,  -3.48497605
    159,   7.52266741,  -3.42179132
    160,   9.38881588,  -3.40514469
    161,   11.2083569,  -3.38952184
    162,   13.0397749,   -3.3970778
    163,   14.9004526,  -3.41368484
    164,   16.7656937,  -3.45056987
    165,   18.6797028,  -3.51788759
    166,   20.8355408,  -3.33726668
    167,   22.6281509,  -3.46195698
    168,     24.49716,  -3.43391728
    169,   26.3579655,  -3.41541052
    170,   28.3633289,  -3.27442813
    171,  -5.61342907,  -3.32204866
    172,  -7.57506752,  -3.40623331
    173,  -9.39791489,  -3.40385556
    174,  -11.2113886,   -3.4182353
    175,    -13.03687,  -3.43075991
    176,   -14.892066,  -3.42991853
    177,  -16.7569695,  -3.45799232
    178,   -18.553791,  -3.33307099
    179,  -20.7115669,  -3.51478171
    180,  -22.6214905,  -3.45621371
    181,  -24.4910316,    -3.427773
    182,  -26.3653851,  -3.40024018
    183,  -28.3731232,  -3.26294494
    184,   -5.5905242,  -1.72567403
    185,   -7.5759964,  -1.71479511
    186,  -9.41273117,  -1.73116231
    187,  -11.2272854,  -1.78436124
    188,  -13.0802155,  -1.80266631
    189,  -14.9478245,  -1.76173377
    190,  -16.8431129,  -1.71987176
    191,  -18.7010765,  -1.73177814
    192,  -20.6482048,  -1.53189611
    193,   -22.321867,  -1.70756531
    194,  -24.3584099,  -1.74755251
    195,  -26.2837029,  -1.68414259
    196,  -28.3002567,  -1.52324796
    197,  -5.71694946,   1.54193342
    198,   -7.3468461,     1.698264
    199,  -9.35100365,   1.69600999
    200,  -11.2101889,     1.629444
    201,   -13.103446,   1.62471008
    202,  -15.0217314,   1.70679665
    203,  -17.0895824,   1.68887985
    204,  -18.7722149,   1.72930944
    205,  -20.6905918,   1.70846426
    206,  -22.5319633,   1.72226524
    207,  -24.4259472,   1.76440704
    208,  -26.2771034,   1.77524459
    209,  -28.2602253,   1.57566321
    210,  -28.0675144, 0.0479424931
    211,  -26.2320251, 0.0691701919
    212,  -24.3703766, 0.00307603064
    213,  -22.5533886, -0.0282213744
    214,  -20.5622578, 0.0425971635
    215,  -18.7006569,  0.157507598
    216,  -16.8069782, 0.0076663252
    217,  -15.0069876, -0.0288582575
    218,  -13.1185369,  -0.12933512
    219,  -11.2192926, -0.112420142
    220,   -9.3706255, -0.0429677702
    221,  -7.39230299, -0.0450587124
    222,  -5.55345917, -0.0567234755
    223,   3.11111116,           4.
    224,   1.33333337,           4.
    225,  0.444444448,           4.
    226,  -1.33333337,           4.
    227,  -3.11111116,           4.
    228,           4.,  -3.11111116
    229,           4.,  -1.33333337
    230,           4., -0.444444448
    231,           4.,   1.33333337
    232,           4.,   3.11111116
    233,  -3.11111116,          -4.
    234,  -1.33333337,          -4.
    235, -0.444444448,          -4.
    236,   1.33333337,          -4.
    237,   3.11111116,          -4.
    238,          -4.,   3.11111116
    239,          -4.,   1.33333337
    240,          -4.,  0.444444448
    241,          -4.,  -1.33333337
    242,          -4.,  -3.11111116
    243,   29.1044769,           5.
    244,   27.3134327,           5.
    245,   25.5223885,           5.
    246,   23.7313442,           5.
    247,   21.9402981,           5.
    248,   20.1492538,           5.
    249,   19.2537308,           5.
    250,   17.4626865,           5.
    251,   15.6716413,           5.
    252,   13.8805971,           5.
    253,   12.0895519,           5.
    254,   10.2985077,           5.
    255,    8.5074625,           5.
    256,   6.71641779,           5.
    257,   4.92537308,           5.
    258,   3.13432837,           5.
    259,   1.34328353,           5.
    260, -0.447761208,           5.
    261,  -1.34328353,           5.
    262,  -3.13432837,           5.
    263,  -4.92537308,           5.
    264,  -6.71641779,           5.
    265,   -8.5074625,           5.
    266,  -10.2985077,           5.
    267,  -12.0895519,           5.
    268,  -13.8805971,           5.
    269,  -15.6716413,           5.
    270,  -17.4626865,           5.
    271,  -19.2537308,           5.
    272,  -20.1492538,           5.
    273,  -21.9402981,           5.
    274,  -23.7313442,           5.
    275,  -25.5223885,           5.
    276,  -27.3134327,           5.
    277,  -29.1044769,           5.
    278,         -30.,     4.090909
    279,         -30.,   2.27272725
    280,         -30.,  0.454545468
    281,         -30.,  -2.27272725
    282,         -30.,    -4.090909
    283,  -29.1044769,          -5.
    284,  -27.3134327,          -5.
    285,  -25.5223885,          -5.
    286,  -23.7313442,          -5.
    287,  -21.9402981,          -5.
    288,  -20.1492538,          -5.
    289,  -19.2537308,          -5.
    290,  -17.4626865,          -5.
    291,  -15.6716413,          -5.
    292,  -13.8805971,          -5.
    293,  -12.0895519,          -5.
    294,  -10.2985077,          -5.
    295,   -8.5074625,          -5.
    296,  -6.71641779,          -5.
    297,  -4.92537308,          -5.
    298,  -3.13432837,          -5.
    299,  -1.34328353,          -5.
    300,  0.447761208,          -5.
    301,   1.34328353,          -5.
    302,   3.13432837,          -5.
    303,   4.92537308,          -5.
    304,   6.71641779,          -5.
    305,    8.5074625,          -5.
    306,   10.2985077,          -5.
    307,   12.0895519,          -5.
    308,   13.8805971,          -5.
    309,   15.6716413,          -5.
    310,   17.4626865,          -5.
    311,   19.2537308,          -5.
    312,   20.1492538,          -5.
    313,   21.9402981,          -5.
    314,   23.7313442,          -5.
    315,   25.5223885,          -5.
    316,   27.3134327,          -5.
    317,   29.1044769,          -5.
    318,          30.,    -4.090909
    319,          30.,  -2.27272725
    320,          30., -0.454545468
    321,          30.,   2.27272725
    322,          30.,     4.090909
    323,   4.71649981,  -3.67727375
    324,  -4.71649981,   3.67727375
    325,   4.66443586, 0.0220875517
    326,  -4.66443586, -0.0220875517
    327,   4.82411337,  -2.82005644
    328,  -4.82411337,   2.82005644
    329,   4.87864113,  -1.88564169
    330,   4.94312334, -0.848316073
    331,  -4.87864113,   1.88564169
    332,  -4.94312334,  0.848316073
    333,   4.72374392,   3.63629341
    334,   4.77242804,   1.90144277
    335,  -4.72374392,  -3.63629341
    336,  -4.77242804,  -1.90144277
    337,   4.90996981,  0.921700597
    338,   4.75083685,   2.77420092
    339,  -4.90996981, -0.921700597
    340,  -4.75083685,  -2.77420092
    341,   20.6026993,   4.37657547
    342,  -20.6026993,  -4.37657547
    343,   28.7889404,    4.1754961
    344,   26.8532448,   4.19983339
    345,   25.0232925,   4.22623301
    346,   23.1927643,   4.22993708
    347,   19.6792202,   4.07594061
    348,   17.0830631,   4.25351048
    349,  -28.7889404,  -4.17558479
    350,  -26.8532448,  -4.19983482
    351,  -25.0232925,  -4.22623301
    352,  -23.1927643,  -4.22993708
    353,  -19.6792202,  -4.07594061
    354,  -17.0830631,  -4.25351048
    355,   16.2024593,   4.22976875
    356,  -16.2024593,  -4.22976875
    357,   15.2958155,   4.22027063
    358,  -15.2958155,  -4.22027063
    359,    5.3191123,   4.25710917
    360,   13.4642887,  -4.21716022
    361,   15.2938528,  -4.21969891
    362,   17.1081352,   -4.2477808
    363,   17.9646835,   4.25216532
    364,   11.6552963,   -4.2102375
    365,    9.8485918,  -4.20999527
    366,   8.03411102,  -4.21568441
    367,   -5.3191123,  -4.25710917
    368,  -15.2938528,   4.21969891
    369,  -17.1081352,    4.2477808
    370,  -17.9646835,  -4.25216532
    371,  -13.4642887,   4.21716022
    372,  -11.6552963,    4.2102375
    373,   -9.8485918,   4.20999527
    374,   28.7870979,  -4.17879009
    375,   27.8058014,   4.16699076
    376,   26.8519974,  -4.20236063
    377,      25.9354,   4.21251917
    378,    25.024313,  -4.22725725
    379,   24.0965672,   4.21897888
    380,    23.192276,  -4.23100233
    381,   22.2838497,   4.24853516
    382,   21.4315166,  -4.25334072
    383,   18.7955914,  -4.37731695
    384,   14.3778391,   4.22106028
    385,   12.5596752,   4.21893167
    386,   10.7514944,   4.21246099
    387,   8.94643021,   4.21132421
    388,    7.1342063,   4.20882177
    389,  -8.03411102,   4.21568441
    390,   -6.1838131,   4.23716116
    391,  -18.7955914,   4.37731695
    392,  -21.4315166,   4.25334072
    393,  -22.2838497,  -4.24853516
    394,   -23.192276,   4.23100233
    395,  -24.0965672,  -4.21897888
    396,   -25.024313,   4.22725725
    397,     -25.9354,  -4.21252108
    398,  -26.8519974,   4.20236063
    399,  -27.8057995,  -4.16709423
    400,  -28.7870979,   4.17879009
    401,  -14.3778391,  -4.22106028
    402,  -12.5596752,  -4.21893167
    403,  -10.7514944,  -4.21246099
    404,  -8.94643021,  -4.21132421
    405,   -7.1342063,  -4.20882177
    406,    6.1838131,  -4.23716116
    407,   21.3810081,   4.27608204
    408,   18.7619267,   4.33223534
    409,   13.4669085,   4.21913671
    410,   11.6562481,   4.21310186
    411,   9.85002708,   4.20771217
    412,   8.04208088,   4.20860386
    413,   6.20614004,   4.20001268
    414,   4.59961605,   4.37868071
    415,  -5.30344296,   4.29780817
    416,  -7.10042286,   4.21556139
    417,  -8.94326687,   4.20930767
    418,  -10.7513113,   4.20473814
    419,  -12.5609407,    4.2089529
    420,   -14.379281,   4.21572733
    421,  -16.2128983,   4.22403955
    422,  -18.0147362,   4.27527523
    423,  -19.7166061,   4.07885361
    424,  -20.6355381,   4.33389235
    425,  -22.3085709,   4.25785017
    426,  -24.0976772,   4.22035122
    427,  -25.9341259,   4.21564102
    428,  -27.8036442,   4.16996098
    429,  -21.3810081,  -4.27608204
    430,  -18.7619267,  -4.33223534
    431,  -13.4669085,  -4.21913671
    432,  -11.6562481,  -4.21310186
    433,  -9.85002708,  -4.20771217
    434,  -8.04208088,  -4.20860386
    435,  -6.20614004,  -4.20001268
    436,  -4.59961605,  -4.37868071
    437,   5.30344296,  -4.29780817
    438,   7.10042286,  -4.21556139
    439,   8.94326687,  -4.20930767
    440,   10.7513113,  -4.20473814
    441,   12.5609407,   -4.2089529
    442,    14.379281,  -4.21572733
    443,   16.2128983,  -4.22403955
    444,   18.0147362,  -4.27527523
    445,   19.7166061,  -4.07885361
    446,   20.6355381,  -4.33389235
    447,   22.3085709,  -4.25785017
    448,   24.0976772,  -4.22035122
    449,   25.9341259,  -4.21564102
    450,   27.8036442,  -4.16996098
    451,   29.2749825,   3.49226665
    452,  -29.2749786,  -3.49267364
    453,   29.1534176,  -1.00180614
    454,   29.2184811,  -2.75114942
    455,  -29.2184811,   2.75114942
    456,  -29.1534634,    1.0020206
    457,   29.2089424,   1.87278771
    458,  -29.1701012, -0.967901349
    459,   29.1709213,  0.968666017
    460,  -29.2022285,  -1.87349129
    461,  -29.2737808,   3.49541903
    462,  -29.1900997,   1.89069498
    463,  -29.0409031, 0.0223033708
    464,  -29.2300854,  -2.74082971
    465,   29.2737808,  -3.49541903
    466,   29.1900921,  -1.89065433
    467,   29.0409412, -0.0218250863
    468,   29.2312088,   2.74022603
    469,   27.3254929,   3.33534026
    470,   23.5463104,   3.42724013
    471,  -27.3254929,  -3.33551216
    472,  -23.5463104,  -3.42724013
    473,   17.5650883,   3.58612442
    474,  -17.5650883,  -3.58612442
    475,   25.4336128,   3.41060519
    476,  -25.4336128,  -3.41060686
    477,  -21.8228741,   3.58934546
    478,   21.8228741,  -3.58934546
    479,   21.7091122,   3.50415063
    480,  -21.7091122,  -3.50415063
    481,  -4.59503317,   4.39501619
    482,   4.59503317,  -4.39501619
    483,  -17.6783218,   3.50059867
    484,   17.6783218,  -3.50059867
    485,  -23.5552006,   3.42929411
    486,   23.5552006,  -3.42929411
    487,   15.8298864,   3.42579746
    488,  -15.8298864,  -3.42579746
    489,   15.8409443,  -3.41962028
    490,  -15.8409443,   3.41962028
    491,  -25.4347992,   3.42630935
    492,   25.4347992,  -3.42630935
    493,    13.956893,   3.42643881
    494,   -13.956893,  -3.42643881
    495,    13.967823,  -3.38730025
    496,   -13.967823,   3.38730025
    497,  -6.53059196,    3.4207108
    498,   6.53059196,   -3.4207108
    499,   6.63745213,   3.38296676
    500,  -6.63745213,  -3.38296676
    501,  -27.3095818,   3.35690546
    502,   27.3095818,  -3.35690546
    503,   12.1228237,   3.41996932
    504,  -12.1228237,  -3.41996932
    505,   12.1233234,  -3.37662745
    506,  -12.1233234,   3.37662745
    507,   8.46533871,  -3.41019535
    508,  -8.46533871,   3.41019535
    509,   8.49293137,   3.38813162
    510,  -8.49293137,  -3.38813162
    511,   10.3035374,   3.40589643
    512,  -10.3035374,  -3.40589643
    513,   10.2940264,  -3.37804198
    514,  -10.2940264,   3.37804198
    515,   5.85190821,  -2.53162289
    516,  -5.85190821,   2.53162289
    517,  -28.5725555,  -2.37125063
    518,   28.5740719,    2.3707633
    519,  -28.5500011,   2.39774799
    520,   28.5499992,  -2.39773393
    521,   5.83217144, -0.784010887
    522,  -5.83217144,  0.784010887
    523,  -21.9313202,   2.68095088
    524,   21.9313202,  -2.68095088
    525,  -22.0314045,   -2.7025516
    526,   22.0314045,    2.7025516
    527,   17.4495983,    2.6777122
    528,  -17.4495983,   -2.6777122
    529,   17.3563442,  -2.69799256
    530,  -17.3563442,   2.69799256
    531,  -23.9803391,   2.60577965
    532,   23.9803391,  -2.60577965
    533,  -23.9405212,  -2.60132504
    534,   23.9405212,   2.60132504
    535,   15.3992796,   2.60135436
    536,  -15.3992796,  -2.60135436
    537,   15.4439526,  -2.57725096
    538,  -15.4439526,   2.57725096
    539,  -27.7419968,   2.48429894
    540,   27.7419949,  -2.48429155
    541,  -27.7714176,  -2.44522262
    542,   27.7716293,   2.44495964
    543,  -25.8509769,   2.60592437
    544,   25.8509769,  -2.60592437
    545,  -25.8461227,  -2.55624199
    546,   25.8461227,   2.55622721
    547,   6.49791479,  -1.19896495
    548,  -6.49791479,   1.19896495
    549,   13.5269623,   2.61866283
    550,  -13.5269623,  -2.61866283
    551,   13.5484705,  -2.51943088
    552,  -13.5484705,   2.51943088
    553,   6.48518562, -0.365326911
    554,  -6.48518562,  0.365326911
    555,  -6.94701767,   2.60332108
    556,   6.94701767,  -2.60332108
    557,   7.08987093,   2.53112102
    558,  -7.08987093,  -2.53112102
    559,   6.47212744,  -1.91482127
    560,  -6.47212744,   1.91482127
    561,   11.6831903,   2.60801816
    562,  -11.6831903,  -2.60801816
    563,  -11.6773815,   2.50601387
    564,   11.6773815,  -2.50601387
    565,   8.90055561,  -2.57346129
    566,  -8.90055561,   2.57346129
    567,   8.95094872,   2.55958581
    568,  -8.95094872,  -2.55958581
    569,   9.85761261,   2.57961202
    570,  -9.85761261,  -2.57961202
    571,  -9.82479191,     2.534657
    572,   9.82479191,    -2.534657
    573,    10.746624,  -2.51379418
    574,   -10.746624,   2.51379418
    575,   10.7665987,   2.59457207
    576,  -10.7665987,  -2.59457207
    577,   8.03464699,   2.55055737
    578,  -8.03464699,  -2.55055737
    579,   -7.9331069,   2.57998776
    580,    7.9331069,  -2.57998776
    581,    12.608963,  -2.50661898
    582,   -12.608963,   2.50661898
    583,   12.6028481,   2.61282206
    584,  -12.6028481,  -2.61282206
    585,   26.8085175,   2.51199555
    586,  -26.8084812,  -2.51208639
    587,   26.7906284,  -2.55939293
    588,  -26.7906284,   2.55939412
    589,   6.14403772,   2.49974513
    590,  -6.14403772,  -2.49974513
    591,    14.492013,  -2.54273248
    592,   -14.492013,   2.54273248
    593,   14.4575148,   2.60683656
    594,  -14.4575148,  -2.60683656
    595,   24.8933697,   2.57669449
    596,  -24.8933697,  -2.57669735
    597,   24.9233017,  -2.60682106
    598,  -24.9233017,   2.60682106
    599,  -25.3615284,   1.77560878
    600,   25.3615284,  -1.77560878
    601,   14.0049229,   1.78491056
    602,  -14.0049229,  -1.78491056
    603,   12.1505022,   1.79140472
    604,  -12.1505022,  -1.79140472
    605,   8.39196777,  -1.70776391
    606,  -8.39196777,   1.70776391
    607,   10.3162584,   1.75835621
    608,  -10.3162584,  -1.75835621
    609,  -27.2265625,   1.69896567
    610,   27.2265625,  -1.69895923
    611,  -23.0219727,   2.60985184
    612,   23.0219727,  -2.60985184
    613,    21.271143,   2.85959864
    614,   -21.271143,  -2.85959864
    615,  -22.9747124,  -2.61319208
    616,   22.9747124,   2.61319208
    617,   16.3581123,   2.60607386
    618,  -16.3581123,  -2.60607386
    619,   18.1163597,  -2.86718225
    620,  -18.1163597,   2.86718225
    621,   16.4135361,   -2.6005466
    622,  -16.4135361,    2.6005466
    623,  -27.2609005,  -1.61719036
    624,   27.2608986,   1.61707938
    625,   6.49560452,  0.547024846
    626,  -6.49560452, -0.547024846
    627,   5.37425137,   2.44462228
    628,  -5.37425137,  -2.44462228
    629,    7.1338706, -0.816389501
    630,   -7.1338706,  0.816389501
    631,   21.3846893,     2.073246
    632,  -21.3846893,    -2.073246
    633,   18.0461845,  -2.09361076
    634,  -18.0461845,   2.09361076
    635,    20.573019,   2.48128176
    636,   -20.573019,  -2.48128176
    637,   18.8262939,  -2.52479005
    638,  -18.8262939,   2.52479005
    639,   26.7196655, -0.906219065
    640,  -26.7196655,  0.906218946
    641,  -23.3961906,  -1.75140536
    642,   23.3961906,   1.75140536
    643,  -23.4927177,   1.72753334
    644,   23.4927177,  -1.72753334
    645,   15.9871426,  -1.73234236
    646,  -15.9871426,   1.73234236
    647,   7.93302965, -0.833522081
    648,  -7.93302965,  0.833522081
    649,  -27.6651535, -0.741466284
    650,   27.6650333,  0.741760492
    651,  -25.7940559,  0.917597473
    652,   25.7940559,  -0.91759795
    653,   13.5695972,  0.954541504
    654,  -13.5695972, -0.954541504
    655,   9.85188293,  0.904868901
    656,  -9.85188293, -0.904868901
    657,   11.6968918,  0.958901823
    658,  -11.6968918, -0.958901823
    659,   8.88359642, -0.826222539
    660,  -8.88359642,  0.826222539
    661,   10.7633982,  0.934055388
    662,  -10.7633982, -0.934055388
    663,   12.6318626,  0.962626338
    664,  -12.6318626, -0.962626338
    665,   14.5102777,  0.913400292
    666,  -14.5102777, -0.913400292
    667,   24.8624897, -0.892779887
    668,  -24.8624897,  0.892779827
    669,  -26.7260342, -0.786550045
    670,   26.7260132,  0.786575377
    671,  -27.6452522,  0.832344115
    672,   27.6452255, -0.832222819
    673,   15.8827009,    1.7254262
    674,  -15.8827009,   -1.7254262
    675,  -25.3019104, 0.0346645974
    676,   25.3019104, -0.0346656404
    677,   14.0676765, 0.0888135806
    678,  -14.0676765, -0.0888135806
    679,   12.1648426,  0.123385802
    680,  -12.1648426, -0.123385802
    681,   10.2913179, 0.0777490959
    682,  -10.2913179, -0.0777490959
    683,   19.6756763,   1.87955105
    684,  -19.6756763,  -1.87955105
    685,  -19.6803493,   1.91130543
    686,   19.6803493,  -1.91130543
    687,   21.4902496,   1.14931536
    688,  -21.4902496,  -1.14931536
    689,   18.1029148,  -1.06286669
    690,  -18.1029148,   1.06286669
    691,   19.6928291,   2.95702147
    692,  -19.6928291,  -2.95702147
    693,  -19.6926384,   2.97244787
    694,   19.6926384,  -2.97244787
    695,  -22.9589787, -0.860409439
    696,   22.9589787,  0.860409439
    697,   23.0164928, -0.845266759
    698,  -23.0164928,  0.845266759
    699,   8.94159317,  0.875184834
    700,  -8.94159317, -0.875184834
    701,   9.81821632, -0.800129414
    702,  -9.81821632,  0.800129414
    703,   16.3546467,   0.84844631
    704,  -16.3546467,  -0.84844631
    705,   16.4258213,  -0.84499383
    706,  -16.4258213,   0.84499383
    707,   15.4359264,  0.875016689
    708,  -15.4359264, -0.875016689
    709,   23.9375591, -0.866983593
    710,  -23.9375591,  0.866983593
    711,  -25.7734776, -0.824266851
    712,   25.7734737,  0.824266553
    713,  -28.4334717,  0.696054757
    714,   28.4334431, -0.695788801
    715,   15.4918203, -0.843405187
    716,  -15.4918203,  0.843405187
    717,  -23.8913269, -0.874918699
    718,   23.8913269,   0.87491858
    719,   27.1758957, -0.0544559695
    720,  -27.1759415, 0.0546099059
    721,  -23.4546871, -0.00803719368
    722,   23.4546871, 0.00803716015
    723,   15.9203634, 0.00937598757
    724,  -15.9203634, -0.00937598757
    725,  -19.9567432, -0.800332725
    726,   19.9567432,  0.800332725
    727,    19.185461, -0.991543055
    728,   -19.185461,  0.991543055
    729,   8.42540073, 0.0269104522
    730,  -8.42540073, -0.0269104522
    731,  -22.1779194, -0.776037753
    732,   22.1779194,  0.776037753
    733,   22.0708008, -0.820878506
    734,  -22.0708008,  0.820878506
    735,   8.49119473,   1.71488023
    736,  -8.49119473,  -1.71488023
    737,   10.2830973,  -1.65470147
    738,  -10.2830973,   1.65470147
    739,   17.2235718, -0.729289472
    740,  -17.2235718,  0.729289472
    741,   17.3011341,  0.833681166
    742,  -17.3011341, -0.833681166
    743,  -25.3269596,  -1.70849347
    744,   25.3269596,   1.70848668
    745,  -28.4487858, -0.632473946
    746,   28.4488602,  0.632825196
    747,   14.5437346, -0.800053775
    748,  -14.5437346,  0.800053775
    749,  -24.8370762, -0.852915168
    750,   24.8370762,  0.852913737
    751,   11.6920309, -0.745803356
    752,  -11.6920309,  0.745803356
    753,   13.5919609, -0.761616647
    754,  -13.5919609,  0.761616647
    755,   10.7523575, -0.773318172
    756,  -10.7523575,  0.773318172
    757,   12.6386995, -0.749210536
    758,  -12.6386995,  0.749210536
    759,    12.155118,  -1.62696683
    760,   -12.155118,   1.62696683
    761,   21.5460873,  0.137651786
    762,  -21.5460873, -0.137651786
    763,    17.749361, -0.0522347763
    764,   -17.749361, 0.0522347763
    765,   20.8407078,  0.715319753
    766,  -20.8407078, -0.715319753
    767,   8.00711632,  0.894958615
    768,  -8.00711632, -0.894958615
    769,    21.575428,  -1.69075477
    770,   -21.575428,   1.69075477
    771,   17.8230762,   1.68939793
    772,  -17.8230762,  -1.68939793
    773,   14.0502262,  -1.65922332
    774,  -14.0502262,   1.65922332
    775,  -20.3992844,   2.45894527
    776,   20.3992844,  -2.45894527
    777,   18.9812012,   2.45290518
    778,  -18.9812012,  -2.45290518
    779,   18.3017483,   2.37697291
    780,  -18.3017483,  -2.37697291
    781,  -21.0864334,   2.37527633
    782,   21.0864334,  -2.37527633
    783,   19.1731339,   1.14474368
    784,  -19.1731339,  -1.14474368
    785,  -20.1512718,  0.940550387
    786,   20.1512718, -0.940550387
    787,   21.0994053,  -0.84426558
    788,  -21.0994053,   0.84426558
    789,   18.3742447,  0.813096404
    790,  -18.3742447, -0.813096404
    791,   7.20170975,  0.957282007
    792,  -7.20170975, -0.957282007
    793,   6.55524063,   1.56340575
    794,  -6.55524063,  -1.56340575
    795,   19.6212769, -0.138341531
    796,  -19.6212769,  0.138341531
    797,   5.82095957,  0.962905765
    798,  -5.82095957, -0.962905765
    799,   19.1652107,  0.492464751
    800,  -19.1652107, -0.492464751
*Element, type=CPS3
   1, 225,  32,   2
   2, 224,  31, 259
   3, 258,   1, 223
   4, 258, 223,   4
   5, 414, 333, 359
   6, 414, 359, 257
   7, 557,  94, 499
   8, 735, 699, 121
   9, 755, 737, 135
  10, 581, 505, 162
  11, 442, 361, 163
  12, 495, 360, 442
  13, 443, 362, 164
  14, 489, 361, 443
  15, 444, 383, 165
  16, 619, 484, 165
  17, 763, 739, 689
  18, 789, 741, 763
  19, 527, 100, 473
  20, 363,  22, 250
  21, 473, 348,  99
  22, 355, 348,  23
  23, 357, 355, 251
  24, 535, 487,  98
  25, 707, 673, 124
  26, 715, 645, 705
  27, 537, 163, 489
  28, 621, 489, 164
  29, 529, 164, 484
  30, 226,  33,   3
  31, 226,   2, 260
  32, 333,   4, 232
  33, 338,  93, 333
  34, 793, 625, 791
  35, 659, 605, 134
  36, 573, 572, 513
  37, 441, 364, 307
  38, 505, 364, 441
  39, 334,   8, 231
  40, 337, 119, 334
  41, 553, 521, 547
  42, 565, 507, 160
  43, 440, 365, 306
  44, 513, 365, 440
  45, 330, 329, 132
  46, 559, 556, 133
  47, 366,  75, 305
  48, 439, 366, 305
  49, 482,  73, 303
  50, 237, 302,   9
  51, 237,  72, 302
  52,  12, 236,  72
  53, 236,  11, 300
  54, 235,  71,  11
  55,  70, 299, 234
  56,  13, 298, 233
  57, 436, 367, 297
  58, 558, 172, 500
  59, 736, 700, 186
  60, 756, 738, 200
  61, 582, 506, 114
  62, 496, 371, 420
  63, 421, 369, 112
  64, 490, 368, 421
  65, 369,  41, 270
  66, 483, 369, 422
  67, 620, 483, 111
  68, 764, 740, 690
  69, 790, 742, 764
  70, 528, 178, 474
  71, 370,  61, 290
  72, 474, 354, 177
  73, 356, 354,  62
  74, 358, 356, 291
  75, 536, 488, 176
  76, 708, 674, 189
  77, 716, 646, 706
  78, 538, 113, 490
  79, 622, 490, 112
  80, 530, 112, 483
  81, 335,  13, 242
  82, 340, 171, 335
  83, 794, 626, 792
  84, 660, 606, 199
  85, 574, 571, 514
  86, 506, 372, 419
  87, 420, 371, 268
  88, 336,  16, 241
  89, 339, 184, 336
  90, 554, 522, 548
  91, 566, 508, 116
  92, 514, 373, 418
  93, 419, 372, 267
  94, 332, 331, 197
  95, 560, 555, 198
  96, 417, 389, 265
  97, 418, 373, 266
  98, 481,  34, 263
  99, 227, 262,   5
 100, 227,  33, 262
 101, 343, 322, 243
 102, 451, 322, 343
 103, 468, 457, 321
 104, 459, 457, 131
 105, 453,  89, 320
 106, 466, 454, 319
 107, 374,  86, 317
 108, 465, 318,  88
 109, 375,  17, 244
 110, 344, 244,  18
 111, 585, 542, 469
 112, 719, 650, 670
 113, 639, 143, 610
 114, 587, 169, 502
 115, 449, 378, 315
 116, 376,  85, 316
 117, 449, 376, 169
 118, 377,  18, 245
 119, 345, 245,  19
 120, 595, 475, 103
 121, 750, 676, 712
 122, 667, 600, 652
 123, 597, 492, 544
 124, 448, 380, 314
 125, 378,  84, 315
 126, 379,  19, 246
 127, 346, 246,  20
 128, 616, 470, 102
 129, 696, 642, 128
 130, 697, 141, 644
 131, 612, 486, 532
 132, 447, 382, 313
 133, 380,  83, 314
 134, 381,  20, 247
 135, 407, 381, 247
 136, 631, 526, 613
 137, 761, 732, 687
 138, 787, 733, 761
 139, 524, 166, 478
 140, 445, 165, 383
 141, 382,  82, 313
 142, 341,  21, 248
 143, 347, 101, 341
 144, 691, 683, 635
 145, 799, 726, 783
 146, 727, 139, 686
 147, 776, 686, 694
 148, 484, 362, 444
 149, 445, 383, 311
 150, 384, 357,  24
 151, 409, 384, 252
 152, 549, 493,  97
 153, 653, 601, 123
 154, 773, 747, 753
 155, 551, 162, 495
 156, 591, 495, 163
 157, 385,  25, 253
 158, 410, 385, 253
 159, 561, 503,  96
 160, 657, 603, 122
 161, 751, 679, 154
 162, 757, 679, 751
 163, 386,  26, 254
 164, 511, 386, 411
 165, 569, 511,  95
 166, 655, 607, 121
 167, 661, 122, 607
 168, 387,  27, 255
 169, 509, 387, 412
 170, 577, 509,  94
 171, 567,  95, 509
 172, 388,  28, 256
 173, 499, 388, 413
 174, 415, 263,  35
 175, 328,  14, 238
 176, 332, 222, 326
 177, 389,  36, 265
 178, 416, 390, 264
 179, 390,  35, 264
 180, 391,  42, 271
 181, 423, 111, 391
 182, 693, 685, 638
 183, 785, 685, 205
 184, 725, 192, 684
 185, 778, 684, 692
 186, 353, 342, 288
 187, 353, 179, 342
 188, 392,  43, 273
 189, 425, 392, 273
 190, 523, 477, 109
 191, 788, 770, 734
 192, 688, 193, 632
 193, 525, 180, 480
 194, 429, 287,  60
 195, 429, 393, 287
 196, 394,  44, 274
 197, 426, 394, 274
 198, 531, 485, 108
 199, 710, 643, 207
 200, 717, 641, 695
 201, 533, 181, 472
 202, 395, 286, 352
 203, 352, 286,  59
 204, 396,  45, 275
 205, 427, 396, 275
 206, 543, 491, 107
 207, 651, 599, 208
 208, 711, 675, 211
 209, 545, 182, 476
 210, 397, 285, 351
 211, 351, 285,  58
 212, 398,  46, 276
 213, 428, 398, 276
 214, 539, 501, 106
 215, 671, 640, 609
 216, 669, 623, 195
 217, 541, 517, 183
 218, 399, 284, 350
 219, 350, 284,  57
 220, 400,  47, 277
 221, 461, 278,  50
 222, 519, 455, 462
 223, 713, 671, 209
 224, 460, 458,  53
 225, 517, 460, 464
 226, 349, 283,  56
 227, 452, 282, 349
 228, 401, 358,  63
 229, 431, 401, 292
 230, 550, 494, 175
 231, 654, 602, 188
 232, 774, 748, 754
 233, 552, 114, 496
 234, 592, 496, 113
 235, 402,  64, 293
 236, 432, 402, 293
 237, 562, 504, 174
 238, 658, 604, 187
 239, 752, 680, 219
 240, 758, 680, 752
 241, 403,  65, 294
 242, 512, 403, 433
 243, 570, 512, 173
 244, 656, 608, 186
 245, 662, 187, 608
 246, 404,  66, 295
 247, 510, 404, 434
 248, 578, 510, 172
 249, 568, 173, 510
 250, 405,  67, 296
 251, 500, 405, 435
 252, 436, 335, 367
 253, 298,  10, 233
 254, 438, 406, 304
 255, 406,  74, 304
 256, 327, 228, 323
 257, 437, 303,  74
 258, 520, 454, 466
 259, 466, 453, 144
 260, 459,  91, 457
 261, 518, 457, 468
 262, 575,  96, 511
 263, 583, 503, 561
 264, 593, 493, 549
 265, 527, 473,  99
 266, 617, 487, 535
 267, 691, 635, 101
 268, 526, 102, 479
 269, 534, 103, 470
 270, 546, 104, 475
 271, 542, 518, 105
 272, 462, 455, 279
 273, 588, 107, 501
 274, 598, 491, 543
 275, 611, 485, 531
 276, 523, 110, 477
 277, 693, 638, 111
 278, 563, 115, 506
 279, 571, 116, 514
 280, 579, 508, 566
 281, 555, 516, 497
 282, 589, 499,  93
 283, 663, 603, 657
 284, 665, 601, 653
 285, 789, 771, 741
 286, 703, 125, 673
 287, 726, 127, 683
 288, 687, 128, 631
 289, 718, 642, 696
 290, 712, 676, 146
 291, 624, 131, 542
 292, 547, 521, 132
 293, 647, 629, 133
 294, 755, 701, 737
 295, 705, 645, 138
 296, 689, 138, 633
 297, 694, 686, 637
 298, 524, 478, 167
 299, 532, 486, 168
 300, 544, 492, 169
 301, 540, 502, 170
 302, 672, 639, 610
 303, 652, 600, 143
 304, 709, 644, 142
 305, 761, 733, 148
 306, 786, 686, 140
 307, 753, 747, 677
 308, 767, 699, 735
 309, 625, 157, 553
 310, 327,   6, 228
 311, 330, 157, 325
 312, 580, 507, 565
 313, 572, 160, 513
 314, 564, 161, 505
 315, 556, 515, 498
 316, 576, 174, 512
 317, 584, 504, 562
 318, 594, 494, 550
 319, 528, 474, 177
 320, 618, 488, 536
 321, 590, 500, 171
 322, 664, 604, 658
 323, 666, 602, 654
 324, 790, 772, 742
 325, 704, 190, 674
 326, 692, 684, 636
 327, 632, 525, 614
 328, 615, 472, 180
 329, 596, 476, 181
 330, 586, 541, 471
 331, 464, 460, 281
 332, 548, 522, 197
 333, 648, 630, 198
 334, 756, 702, 738
 335, 706, 646, 203
 336, 690, 203, 634
 337, 728, 204, 685
 338, 788, 734, 762
 339, 698, 206, 643
 340, 668, 599, 651
 341, 640, 208, 609
 342, 456,  51, 280
 343, 745, 463, 458
 344, 720, 649, 669
 345, 749, 675, 711
 346, 695, 641, 193
 347, 762, 731, 688
 348, 800, 725, 784
 349, 754, 748, 678
 350, 768, 700, 736
 351, 626, 222, 554
 352, 328, 238, 324
 353, 258,   4,  30
 354, 224,   1,  31
 355, 259, 225, 224
 356, 260,   2,  32
 357, 227,   3,  33
 358, 323, 228,   9
 359, 329, 229,   6
 360, 330, 229, 329
 361, 337, 334, 231
 362, 627, 334, 119
 363, 298,  13,  69
 364, 234,  10,  70
 365, 299, 235, 234
 366, 300,  11,  71
 367, 237,  12,  72
 368, 324, 238,   5
 369, 331, 239,  14
 370, 332, 239, 331
 371, 339, 336, 241
 372, 628, 336, 184
 373, 375, 343,  17
 374, 377, 344,  18
 375, 379, 345,  19
 376, 381, 346,  20
 377, 407,  21, 341
 378, 408, 347, 249
 379, 408, 249,  22
 380, 348, 250,  23
 381, 357, 251,  24
 382, 409, 252,  25
 383, 410, 253,  26
 384, 411,  27, 387
 385, 412,  28, 388
 386, 413,  29, 359
 387, 414,  30,   4
 388, 258,  31,   1
 389, 259,  32, 225
 390, 260, 261, 226
 391, 261,  33, 226
 392,   5, 262,  34
 393, 415, 390, 118
 394, 416, 264,  36
 395, 417,  37, 373
 396, 418,  38, 372
 397, 419,  39, 371
 398, 420,  40, 368
 399, 421,  41, 369
 400, 422,  42, 391
 401, 424, 423, 272
 402, 424, 272,  43
 403, 425, 273,  44
 404, 426, 274,  45
 405, 427, 275,  46
 406, 428, 276,  47
 407, 277,  49, 278
 408, 461, 455, 106
 409, 462, 279,  51
 410, 463, 280,  52
 411, 464,  54, 452
 412, 282,  55, 283
 413, 399, 349,  56
 414, 397, 350,  57
 415, 395, 351,  58
 416, 393, 352,  59
 417, 429,  60, 342
 418, 430, 353, 289
 419, 430, 289,  61
 420, 354, 290,  62
 421, 358, 291,  63
 422, 431, 292,  64
 423, 432, 293,  65
 424, 433,  66, 404
 425, 434,  67, 405
 426, 435,  68, 367
 427, 436,  69,  13
 428, 298,  70,  10
 429, 299,  71, 235
 430, 300, 301, 236
 431, 301,  72, 236
 432,   9, 302,  73
 433, 437, 406, 158
 434, 438, 304,  75
 435, 439,  76, 365
 436, 440,  77, 364
 437, 441,  78, 360
 438, 442,  79, 361
 439, 443,  80, 362
 440, 444,  81, 383
 441, 446, 445, 312
 442, 446, 312,  82
 443, 447, 313,  83
 444, 448, 314,  84
 445, 449, 315,  85
 446, 450, 316,  86
 447, 317,  87, 318
 448, 465, 454, 170
 449, 466, 319,  89
 450, 467, 320,  90
 451, 468,  92, 451
 452, 322,  48, 243
 453, 482, 437, 323
 454, 327, 323, 158
 455, 481, 415, 324
 456, 328, 324, 118
 457, 797, 157, 625
 458, 325,   7, 230
 459, 798, 222, 626
 460, 326,  15, 240
 461, 515, 327, 158
 462, 515, 329, 327
 463, 516, 328, 118
 464, 516, 331, 328
 465, 329,   6, 327
 466, 521, 330, 132
 467, 330, 325, 230
 468, 330, 230, 229
 469, 331,  14, 328
 470, 522, 332, 197
 471, 332, 326, 240
 472, 332, 240, 239
 473, 338, 232,   8
 474, 359, 333,  93
 475, 337, 231,   7
 476, 627, 589,  93
 477, 340, 242,  16
 478, 367, 335, 171
 479, 339, 241,  15
 480, 628, 590, 171
 481, 337,   7, 325
 482, 337, 325, 157
 483, 338, 333, 232
 484, 338,   8, 334
 485, 339,  15, 326
 486, 339, 326, 222
 487, 340, 335, 242
 488, 340,  16, 336
 489, 347, 341, 248
 490, 479, 381, 407
 491, 480, 393, 429
 492, 342,  60, 288
 493, 343, 243,  17
 494, 451, 343, 105
 495, 469, 344, 104
 496, 469, 375, 344
 497, 475, 345, 103
 498, 475, 377, 345
 499, 470, 346, 102
 500, 470, 379, 346
 501, 347, 248, 249
 502, 691, 347, 100
 503, 355,  23, 251
 504, 473, 363, 348
 505, 452, 349, 183
 506, 349, 282, 283
 507, 471, 350, 182
 508, 471, 399, 350
 509, 476, 351, 181
 510, 476, 397, 351
 511, 472, 352, 180
 512, 472, 395, 352
 513, 353, 288, 289
 514, 692, 353, 178
 515, 356,  62, 291
 516, 474, 370, 354
 517, 487, 355, 357
 518, 355,  99, 348
 519, 488, 356, 358
 520, 356, 177, 354
 521, 384,  24, 252
 522, 487, 357,  98
 523, 401,  63, 292
 524, 488, 358, 176
 525, 499, 413,  93
 526, 359,  29, 257
 527, 505, 441, 162
 528, 360,  78, 308
 529, 495, 442, 163
 530, 361,  79, 309
 531, 489, 443, 164
 532, 362,  80, 310
 533, 408, 363, 100
 534, 363, 250, 348
 535, 513, 440, 161
 536, 364,  77, 307
 537, 507, 439, 160
 538, 365,  76, 306
 539, 507, 366, 439
 540, 438, 366, 159
 541, 500, 435, 171
 542, 367,  68, 297
 543, 496, 420, 113
 544, 368,  40, 269
 545, 422, 391, 111
 546, 490, 421, 112
 547, 430, 370, 178
 548, 370, 290, 354
 549, 506, 419, 114
 550, 371,  39, 268
 551, 514, 418, 115
 552, 372,  38, 267
 553, 508, 417, 116
 554, 373,  37, 266
 555, 450, 374, 170
 556, 374, 317, 318
 557, 375, 244, 344
 558, 375, 105, 343
 559, 450, 376, 316
 560, 502, 376, 450
 561, 377, 245, 345
 562, 377, 104, 344
 563, 492, 378, 449
 564, 448, 378, 168
 565, 379, 246, 346
 566, 379, 103, 345
 567, 486, 380, 448
 568, 447, 380, 167
 569, 407, 247,  21
 570, 381, 102, 346
 571, 478, 382, 447
 572, 446, 382, 166
 573, 484, 444, 165
 574, 383,  81, 311
 575, 493, 384, 409
 576, 384,  98, 357
 577, 503, 385, 410
 578, 409, 385,  97
 579, 411, 387,  95
 580, 410, 386,  96
 581, 412, 388,  94
 582, 511, 411,  95
 583, 413, 388, 256
 584, 509, 412,  94
 585, 508, 389, 417
 586, 416, 389, 117
 587, 497, 390, 416
 588, 415, 118, 324
 589, 423, 391, 271
 590, 483, 422, 111
 591, 477, 392, 425
 592, 424, 392, 110
 593, 393, 180, 352
 594, 393,  59, 287
 595, 485, 394, 426
 596, 425, 394, 109
 597, 395, 181, 351
 598, 395,  58, 286
 599, 491, 396, 427
 600, 426, 396, 108
 601, 397, 182, 350
 602, 397,  57, 285
 603, 501, 398, 428
 604, 427, 398, 107
 605, 399, 183, 349
 606, 399,  56, 284
 607, 428, 400, 106
 608, 400, 277, 278
 609, 494, 401, 431
 610, 401, 176, 358
 611, 504, 402, 432
 612, 431, 402, 175
 613, 433, 404, 173
 614, 432, 403, 174
 615, 434, 405, 172
 616, 512, 433, 173
 617, 435, 405, 296
 618, 510, 434, 172
 619, 498, 406, 438
 620, 437, 158, 323
 621, 407, 341, 101
 622, 479, 407, 101
 623, 408,  22, 363
 624, 408, 100, 347
 625, 409,  25, 385
 626, 493, 409,  97
 627, 410,  26, 386
 628, 503, 410,  96
 629, 411, 386, 254
 630, 411, 254,  27
 631, 412, 387, 255
 632, 412, 255,  28
 633, 413, 256,  29
 634, 413, 359,  93
 635, 414, 257,  30
 636, 414,   4, 333
 637, 481, 324,   5
 638, 415,  35, 390
 639, 416,  36, 389
 640, 497, 416, 117
 641, 417, 265,  37
 642, 417, 373, 116
 643, 418, 266,  38
 644, 418, 372, 115
 645, 419, 267,  39
 646, 419, 371, 114
 647, 420, 268,  40
 648, 420, 368, 113
 649, 421, 368, 269
 650, 421, 269,  41
 651, 422, 369, 270
 652, 422, 270,  42
 653, 423, 271, 272
 654, 693, 423, 110
 655, 424,  43, 392
 656, 424, 110, 423
 657, 425,  44, 394
 658, 477, 425, 109
 659, 426,  45, 396
 660, 485, 426, 108
 661, 427,  46, 398
 662, 491, 427, 107
 663, 428,  47, 400
 664, 501, 428, 106
 665, 429, 342, 179
 666, 480, 429, 179
 667, 430,  61, 370
 668, 430, 178, 353
 669, 431,  64, 402
 670, 494, 431, 175
 671, 432,  65, 403
 672, 504, 432, 174
 673, 433, 403, 294
 674, 433, 294,  66
 675, 434, 404, 295
 676, 434, 295,  67
 677, 435, 296,  68
 678, 435, 367, 171
 679, 436, 297,  69
 680, 436,  13, 335
 681, 482, 323,   9
 682, 437,  74, 406
 683, 438,  75, 366
 684, 498, 438, 159
 685, 439, 305,  76
 686, 439, 365, 160
 687, 440, 306,  77
 688, 440, 364, 161
 689, 441, 307,  78
 690, 441, 360, 162
 691, 442, 360, 308
 692, 442, 308,  79
 693, 443, 361, 309
 694, 443, 309,  80
 695, 444, 362, 310
 696, 444, 310,  81
 697, 445, 311, 312
 698, 694, 445, 166
 699, 446,  82, 382
 700, 446, 166, 445
 701, 447,  83, 380
 702, 478, 447, 167
 703, 448,  84, 378
 704, 486, 448, 168
 705, 449,  85, 376
 706, 492, 449, 169
 707, 450,  86, 374
 708, 502, 450, 170
 709, 518, 468, 105
 710, 451,  92, 322
 711, 517, 464, 183
 712, 452,  54, 282
 713, 467, 453, 320
 714, 714, 672, 144
 715, 465, 170, 374
 716, 454,  88, 319
 717, 461, 106, 400
 718, 455,  50, 279
 719, 462, 456, 209
 720, 463, 456, 280
 721, 746, 131, 650
 722, 457,  91, 321
 723, 458,  52,  53
 724, 745, 196, 649
 725, 746, 467, 459
 726, 459,  90,  91
 727, 460, 196, 458
 728, 460,  53, 281
 729, 461, 400, 278
 730, 461,  50, 455
 731, 462,  51, 456
 732, 519, 462, 209
 733, 463,  52, 458
 734, 713, 463, 210
 735, 464, 281,  54
 736, 464, 452, 183
 737, 465, 374, 318
 738, 465,  88, 454
 739, 466,  89, 453
 740, 520, 466, 144
 741, 467,  90, 459
 742, 714, 467, 145
 743, 468, 321,  92
 744, 468, 451, 105
 745, 585, 104, 546
 746, 469, 105, 375
 747, 616, 534, 470
 748, 470, 103, 379
 749, 586, 182, 545
 750, 471, 183, 399
 751, 615, 533, 472
 752, 472, 181, 395
 753, 617, 527,  99
 754, 473, 100, 363
 755, 618, 528, 177
 756, 474, 178, 370
 757, 595, 546, 475
 758, 475, 104, 377
 759, 596, 545, 476
 760, 476, 182, 397
 761, 611, 523, 109
 762, 477, 110, 392
 763, 612, 524, 167
 764, 478, 166, 382
 765, 613, 479, 101
 766, 479, 102, 381
 767, 614, 480, 179
 768, 480, 180, 393
 769, 481,   5,  34
 770, 481, 263, 415
 771, 482,   9,  73
 772, 482, 303, 437
 773, 620, 530, 483
 774, 483, 112, 369
 775, 619, 529, 484
 776, 484, 164, 362
 777, 598, 531, 108
 778, 485, 109, 394
 779, 597, 532, 168
 780, 486, 167, 380
 781, 593, 535,  98
 782, 487,  99, 355
 783, 594, 536, 176
 784, 488, 177, 356
 785, 621, 537, 489
 786, 489, 163, 361
 787, 622, 538, 490
 788, 490, 113, 368
 789, 588, 543, 107
 790, 491, 108, 396
 791, 587, 544, 169
 792, 492, 168, 378
 793, 583, 549,  97
 794, 493,  98, 384
 795, 584, 550, 175
 796, 494, 176, 401
 797, 591, 551, 495
 798, 495, 162, 360
 799, 592, 552, 496
 800, 496, 114, 371
 801, 579, 555, 117
 802, 497, 118, 390
 803, 580, 556, 159
 804, 498, 158, 406
 805, 589, 557, 499
 806, 499,  94, 388
 807, 590, 558, 500
 808, 500, 172, 405
 809, 539, 106, 519
 810, 501, 107, 398
 811, 540, 170, 520
 812, 502, 169, 376
 813, 575, 561,  96
 814, 503,  97, 385
 815, 576, 562, 174
 816, 504, 175, 402
 817, 581, 564, 505
 818, 505, 161, 364
 819, 582, 563, 506
 820, 506, 115, 372
 821, 572, 565, 160
 822, 507, 159, 366
 823, 571, 566, 116
 824, 508, 117, 389
 825, 577, 567, 509
 826, 509,  95, 387
 827, 578, 568, 510
 828, 510, 173, 404
 829, 569,  95, 567
 830, 511,  96, 386
 831, 570, 173, 568
 832, 512, 174, 403
 833, 573, 161, 564
 834, 513, 160, 365
 835, 574, 115, 563
 836, 514, 116, 373
 837, 515, 132, 329
 838, 515, 158, 498
 839, 516, 197, 331
 840, 516, 118, 497
 841, 541, 183, 471
 842, 517, 196, 460
 843, 542, 105, 469
 844, 518, 131, 457
 845, 539, 519, 209
 846, 519, 106, 455
 847, 540, 520, 144
 848, 520, 170, 454
 849, 629, 553, 547
 850, 521, 157, 330
 851, 630, 554, 548
 852, 522, 222, 332
 853, 770, 523, 206
 854, 781, 775, 110
 855, 769, 524, 141
 856, 782, 776, 166
 857, 614, 525, 480
 858, 615, 525, 193
 859, 613, 526, 479
 860, 616, 526, 128
 861, 771, 527, 125
 862, 779, 777, 100
 863, 772, 528, 190
 864, 780, 778, 178
 865, 633, 529, 619
 866, 621, 529, 138
 867, 634, 530, 620
 868, 622, 530, 203
 869, 643, 531, 207
 870, 643, 611, 531
 871, 644, 532, 142
 872, 644, 612, 532
 873, 641, 533, 615
 874, 596, 533, 194
 875, 642, 534, 616
 876, 595, 534, 129
 877, 673, 535, 124
 878, 673, 617, 535
 879, 674, 536, 189
 880, 674, 618, 536
 881, 645, 537, 621
 882, 591, 537, 137
 883, 646, 538, 622
 884, 592, 538, 202
 885, 609, 539, 209
 886, 609, 588, 539
 887, 610, 540, 144
 888, 610, 587, 540
 889, 623, 541, 586
 890, 541, 196, 517
 891, 624, 542, 585
 892, 542, 131, 518
 893, 599, 598, 543
 894, 599, 543, 208
 895, 600, 597, 544
 896, 600, 544, 143
 897, 743, 545, 596
 898, 586, 545, 195
 899, 744, 546, 595
 900, 585, 546, 130
 901, 559, 132, 515
 902, 629, 547, 133
 903, 560, 197, 516
 904, 630, 548, 198
 905, 601, 593, 549
 906, 601, 549, 123
 907, 602, 594, 550
 908, 602, 550, 188
 909, 773, 551, 591
 910, 581, 551, 136
 911, 774, 552, 592
 912, 582, 552, 201
 913, 625, 553, 156
 914, 553, 157, 521
 915, 626, 554, 221
 916, 554, 222, 522
 917, 555, 497, 117
 918, 560, 198, 548
 919, 556, 498, 159
 920, 559, 133, 547
 921, 793, 557, 589
 922, 577, 557, 120
 923, 794, 558, 590
 924, 578, 558, 185
 925, 559, 547, 132
 926, 559, 515, 556
 927, 560, 548, 197
 928, 560, 516, 555
 929, 603, 583, 561
 930, 603, 561, 122
 931, 604, 584, 562
 932, 604, 562, 187
 933, 760, 563, 582
 934, 574, 563, 200
 935, 759, 564, 581
 936, 573, 564, 135
 937, 605, 580, 565
 938, 605, 565, 134
 939, 606, 579, 566
 940, 606, 566, 199
 941, 735, 567, 577
 942, 569, 567, 121
 943, 736, 568, 578
 944, 570, 568, 186
 945, 607, 569, 121
 946, 607, 575, 569
 947, 608, 570, 186
 948, 608, 576, 570
 949, 738, 571, 574
 950, 571, 199, 566
 951, 737, 572, 573
 952, 572, 134, 565
 953, 573, 513, 161
 954, 737, 573, 135
 955, 574, 514, 115
 956, 738, 574, 200
 957, 575, 122, 561
 958, 575, 511, 569
 959, 576, 187, 562
 960, 576, 512, 570
 961, 577,  94, 557
 962, 735, 577, 120
 963, 578, 172, 558
 964, 736, 578, 185
 965, 579, 198, 555
 966, 579, 117, 508
 967, 580, 133, 556
 968, 580, 159, 507
 969, 581, 162, 551
 970, 759, 581, 136
 971, 582, 114, 552
 972, 760, 582, 201
 973, 583, 123, 549
 974, 583,  97, 503
 975, 584, 188, 550
 976, 584, 175, 504
 977, 585, 469, 104
 978, 624, 585, 130
 979, 586, 471, 182
 980, 623, 586, 195
 981, 587, 143, 544
 982, 587, 502, 540
 983, 588, 208, 543
 984, 588, 501, 539
 985, 627,  93, 338
 986, 793, 589, 119
 987, 628, 171, 340
 988, 794, 590, 184
 989, 591, 163, 537
 990, 773, 591, 137
 991, 592, 113, 538
 992, 774, 592, 202
 993, 593, 124, 535
 994, 593,  98, 493
 995, 594, 189, 536
 996, 594, 176, 494
 997, 595, 103, 534
 998, 744, 595, 129
 999, 596, 181, 533
1000, 743, 596, 194
1001, 597, 142, 532
1002, 597, 168, 492
1003, 598, 207, 531
1004, 598, 108, 491
1005, 651, 208, 640
1006, 599, 207, 598
1007, 652, 143, 639
1008, 600, 142, 597
1009, 663, 653, 123
1010, 601, 124, 593
1011, 664, 654, 188
1012, 602, 189, 594
1013, 661, 657, 122
1014, 603, 123, 583
1015, 662, 658, 187
1016, 604, 188, 584
1017, 659, 647, 605
1018, 605, 133, 580
1019, 660, 648, 606
1020, 606, 198, 579
1021, 699, 655, 121
1022, 607, 122, 575
1023, 700, 656, 186
1024, 608, 187, 576
1025, 713, 209, 456
1026, 609, 208, 588
1027, 714, 144, 453
1028, 610, 143, 587
1029, 611, 206, 523
1030, 611, 109, 485
1031, 612, 141, 524
1032, 612, 167, 486
1033, 635, 613, 101
1034, 635, 631, 613
1035, 636, 614, 179
1036, 636, 632, 614
1037, 615, 180, 525
1038, 641, 615, 193
1039, 616, 102, 526
1040, 642, 616, 128
1041, 617, 125, 527
1042, 617,  99, 487
1043, 618, 190, 528
1044, 618, 177, 488
1045, 637, 619, 165
1046, 637, 633, 619
1047, 638, 620, 111
1048, 638, 634, 620
1049, 621, 164, 529
1050, 645, 621, 138
1051, 622, 112, 530
1052, 646, 622, 203
1053, 669, 649, 623
1054, 623, 196, 541
1055, 670, 624, 130
1056, 670, 650, 624
1057, 791, 625, 156
1058, 797, 625, 793
1059, 792, 626, 221
1060, 798, 626, 794
1061, 627, 338, 334
1062, 627, 119, 589
1063, 628, 340, 336
1064, 628, 184, 590
1065, 647, 133, 605
1066, 629, 156, 553
1067, 648, 198, 606
1068, 630, 221, 554
1069, 687, 631, 127
1070, 631, 128, 526
1071, 688, 632, 192
1072, 632, 193, 525
1073, 689, 633, 139
1074, 633, 138, 529
1075, 690, 634, 204
1076, 634, 203, 530
1077, 777, 683, 691
1078, 635, 127, 631
1079, 636, 192, 632
1080, 692, 636, 179
1081, 637, 139, 633
1082, 694, 637, 165
1083, 775, 685, 693
1084, 638, 204, 634
1085, 719, 639, 672
1086, 652, 639, 146
1087, 720, 640, 671
1088, 651, 640, 211
1089, 731, 695, 193
1090, 641, 194, 533
1091, 732, 696, 128
1092, 642, 129, 534
1093, 710, 698, 643
1094, 643, 206, 611
1095, 709, 697, 644
1096, 644, 141, 612
1097, 739, 705, 138
1098, 645, 137, 537
1099, 740, 706, 203
1100, 646, 202, 538
1101, 729, 647, 659
1102, 647, 156, 629
1103, 730, 648, 660
1104, 648, 221, 630
1105, 745, 649, 210
1106, 649, 196, 623
1107, 746, 650, 145
1108, 650, 131, 624
1109, 675, 651, 211
1110, 675, 668, 651
1111, 676, 652, 146
1112, 676, 667, 652
1113, 677, 653, 153
1114, 677, 665, 653
1115, 678, 654, 218
1116, 678, 666, 654
1117, 681, 655, 155
1118, 681, 661, 655
1119, 682, 656, 220
1120, 682, 662, 656
1121, 679, 657, 154
1122, 679, 663, 657
1123, 680, 658, 219
1124, 680, 664, 658
1125, 701, 659, 134
1126, 729, 659, 155
1127, 702, 660, 199
1128, 730, 660, 220
1129, 661, 154, 657
1130, 661, 607, 655
1131, 662, 219, 658
1132, 662, 608, 656
1133, 663, 153, 653
1134, 663, 123, 603
1135, 664, 218, 654
1136, 664, 188, 604
1137, 707, 665, 152
1138, 665, 124, 601
1139, 708, 666, 217
1140, 666, 189, 602
1141, 709, 667, 147
1142, 667, 142, 600
1143, 710, 668, 212
1144, 668, 207, 599
1145, 711, 669, 195
1146, 720, 669, 211
1147, 712, 670, 130
1148, 719, 670, 146
1149, 671, 609, 209
1150, 720, 671, 210
1151, 672, 610, 144
1152, 719, 672, 145
1153, 707, 703, 673
1154, 673, 125, 617
1155, 708, 704, 674
1156, 674, 190, 618
1157, 711, 211, 669
1158, 675, 212, 668
1159, 712, 146, 670
1160, 676, 147, 667
1161, 757, 753, 153
1162, 677, 152, 665
1163, 758, 754, 218
1164, 678, 217, 666
1165, 755, 751, 154
1166, 679, 153, 663
1167, 756, 752, 219
1168, 680, 218, 664
1169, 701, 681, 155
1170, 681, 154, 661
1171, 702, 682, 220
1172, 682, 219, 662
1173, 783, 683, 126
1174, 683, 127, 635
1175, 784, 684, 191
1176, 684, 192, 636
1177, 785, 728, 685
1178, 685, 204, 638
1179, 786, 727, 686
1180, 686, 139, 637
1181, 765, 127, 726
1182, 765, 761, 687
1183, 766, 192, 725
1184, 766, 762, 688
1185, 727, 689, 139
1186, 763, 689, 150
1187, 728, 690, 204
1188, 764, 690, 215
1189, 691, 101, 347
1190, 777, 691, 100
1191, 692, 179, 353
1192, 778, 692, 178
1193, 693, 111, 423
1194, 775, 693, 110
1195, 694, 165, 445
1196, 776, 694, 166
1197, 721, 717, 695
1198, 721, 695, 213
1199, 722, 718, 696
1200, 722, 696, 148
1201, 722, 697, 709
1202, 733, 697, 148
1203, 721, 698, 710
1204, 734, 698, 213
1205, 767, 156, 729
1206, 699, 155, 655
1207, 768, 221, 730
1208, 700, 220, 656
1209, 701, 155, 659
1210, 737, 701, 134
1211, 702, 220, 660
1212, 738, 702, 199
1213, 723, 703, 707
1214, 741, 703, 151
1215, 724, 704, 708
1216, 742, 704, 216
1217, 723, 715, 705
1218, 723, 705, 151
1219, 724, 716, 706
1220, 724, 706, 216
1221, 707, 124, 665
1222, 723, 707, 152
1223, 708, 189, 666
1224, 724, 708, 217
1225, 709, 142, 667
1226, 722, 709, 147
1227, 710, 207, 668
1228, 721, 710, 212
1229, 743, 711, 195
1230, 749, 711, 743
1231, 744, 712, 130
1232, 750, 712, 744
1233, 713, 456, 463
1234, 713, 210, 671
1235, 714, 453, 467
1236, 714, 145, 672
1237, 747, 715, 152
1238, 715, 137, 645
1239, 748, 716, 217
1240, 716, 202, 646
1241, 749, 717, 212
1242, 717, 194, 641
1243, 750, 718, 147
1244, 718, 129, 642
1245, 719, 145, 650
1246, 719, 146, 639
1247, 720, 210, 649
1248, 720, 211, 640
1249, 721, 213, 698
1250, 721, 212, 717
1251, 722, 148, 697
1252, 722, 147, 718
1253, 723, 151, 703
1254, 723, 152, 715
1255, 724, 216, 704
1256, 724, 217, 716
1257, 784, 725, 684
1258, 766, 725, 214
1259, 783, 726, 683
1260, 765, 726, 149
1261, 795, 727, 786
1262, 727, 150, 689
1263, 796, 728, 785
1264, 728, 215, 690
1265, 729, 156, 647
1266, 729, 155, 699
1267, 730, 221, 648
1268, 730, 220, 700
1269, 731, 213, 695
1270, 731, 193, 688
1271, 732, 148, 696
1272, 732, 128, 687
1273, 787, 769, 733
1274, 733, 141, 697
1275, 734, 206, 698
1276, 762, 734, 213
1277, 735, 121, 567
1278, 767, 735, 120
1279, 736, 186, 568
1280, 768, 736, 185
1281, 737, 134, 572
1282, 755, 135, 751
1283, 738, 199, 571
1284, 756, 200, 752
1285, 739, 151, 705
1286, 739, 138, 689
1287, 740, 216, 706
1288, 740, 203, 690
1289, 741, 125, 703
1290, 763, 741, 151
1291, 742, 190, 704
1292, 764, 742, 216
1293, 749, 743, 194
1294, 743, 195, 545
1295, 750, 744, 129
1296, 744, 130, 546
1297, 745, 210, 463
1298, 745, 458, 196
1299, 746, 145, 467
1300, 746, 459, 131
1301, 747, 137, 715
1302, 747, 152, 677
1303, 748, 202, 716
1304, 748, 217, 678
1305, 749, 194, 717
1306, 749, 212, 675
1307, 750, 129, 718
1308, 750, 147, 676
1309, 759, 751, 135
1310, 759, 757, 751
1311, 760, 752, 200
1312, 760, 758, 752
1313, 753, 677, 153
1314, 773, 753, 136
1315, 754, 678, 218
1316, 774, 754, 201
1317, 755, 154, 681
1318, 755, 681, 701
1319, 756, 219, 682
1320, 756, 682, 702
1321, 757, 136, 753
1322, 757, 153, 679
1323, 758, 201, 754
1324, 758, 218, 680
1325, 759, 135, 564
1326, 759, 136, 757
1327, 760, 200, 563
1328, 760, 201, 758
1329, 761, 148, 732
1330, 787, 149, 786
1331, 762, 213, 731
1332, 788, 214, 785
1333, 763, 151, 739
1334, 799, 789, 150
1335, 764, 216, 740
1336, 800, 790, 215
1337, 765, 149, 761
1338, 765, 687, 127
1339, 766, 214, 762
1340, 766, 688, 192
1341, 791, 767, 120
1342, 767, 729, 699
1343, 792, 768, 185
1344, 768, 730, 700
1345, 782, 769, 140
1346, 769, 141, 733
1347, 781, 770, 205
1348, 770, 206, 734
1349, 779, 771, 126
1350, 771, 125, 741
1351, 780, 772, 191
1352, 772, 190, 742
1353, 773, 136, 551
1354, 773, 137, 747
1355, 774, 201, 552
1356, 774, 202, 748
1357, 781, 110, 523
1358, 775, 205, 685
1359, 782, 166, 524
1360, 776, 140, 686
1361, 779, 100, 527
1362, 777, 126, 683
1363, 780, 178, 528
1364, 778, 191, 684
1365, 779, 527, 771
1366, 779, 126, 777
1367, 780, 528, 772
1368, 780, 191, 778
1369, 781, 523, 770
1370, 781, 205, 775
1371, 782, 524, 769
1372, 782, 140, 776
1373, 789, 783, 126
1374, 799, 795, 726
1375, 790, 784, 191
1376, 800, 796, 725
1377, 788, 785, 205
1378, 796, 785, 214
1379, 787, 786, 140
1380, 795, 786, 149
1381, 787, 761, 149
1382, 787, 140, 769
1383, 788, 762, 214
1384, 788, 205, 770
1385, 789, 763, 150
1386, 789, 126, 771
1387, 790, 764, 215
1388, 790, 191, 772
1389, 791, 156, 767
1390, 793, 791, 120
1391, 792, 221, 768
1392, 794, 792, 185
1393, 797, 793, 119
1394, 793, 120, 557
1395, 798, 794, 184
1396, 794, 185, 558
1397, 795, 149, 726
1398, 795, 150, 727
1399, 796, 214, 725
1400, 796, 215, 728
1401, 797, 119, 337
1402, 797, 337, 157
1403, 798, 184, 339
1404, 798, 339, 222
1405, 799, 783, 789
1406, 799, 150, 795
1407, 800, 784, 790
1408, 800, 215, 796
*Nset, nset=_PickedSet2, internal, generate
   1,  800,    1
*Elset, elset=_PickedSet2, internal, generate
    1,  1408,     1
** Section: Section-1
*Solid Section, elset=_PickedSet2, material=Material-1
1.,
*End Part
**  
**
** ASSEMBLY
**
*Assembly, name=Assembly
**  
*Instance, name=plate-1, part=plate
*End Instance
**  
*Nset, nset=LeftEdgeSet, instance=plate-1
  49,  50,  51,  52,  53,  54,  55, 278, 279, 280, 281, 282
*Elset, elset=LeftEdgeSet, instance=plate-1
 221, 342, 407, 409, 410, 412, 712, 718, 723, 728, 735
*Elset, elset=_LoadSurface_S2, internal, instance=plate-1
 105, 108, 447, 449, 450, 710, 716, 722, 726, 743
*Elset, elset=_LoadSurface_S1, internal, instance=plate-1
 452,
*Surface, type=ELEMENT, name=LoadSurface
_LoadSurface_S2, S2
_LoadSurface_S1, S1
*End Assembly
** 
** MATERIALS
** 
*Material, name=Material-1
*Elastic
 2.9e+07, 0.3
** 
** BOUNDARY CONDITIONS
** 
** Name: BC-LeftEdge Type: Displacement/Rotation
*Boundary
LeftEdgeSet, 1, 1
LeftEdgeSet, 2, 2
** ----------------------------------------------------------------
** 
** STEP: Step-1
** 
*Step, name=Step-1, nlgeom=NO
*Static
1., 1., 1e-05, 1.
** 
** LOADS
** 
** Name: Load-1   Type: Pressure
*Dsload
LoadSurface, P, -9499.
** 
** OUTPUT REQUESTS
** 
*Restart, write, frequency=0
** 
** FIELD OUTPUT: F-Output-1
** 
*Output, field, variable=PRESELECT
** 
** HISTORY OUTPUT: H-Output-1
** 
*Output, history, variable=PRESELECT
*End Step
