*Heading
** Job name: plate_double8__8499 Model name: PlateModel
** Generated by: Abaqus/CAE 2022
*Preprint, echo=NO, model=NO, history=NO, contact=NO
**
** PARTS
**
*Part, name=plate
*Node
      1,   18.6038761,   1.73553491
      2,   17.4939594,   3.12732601
      3,   15.8900833,   3.89971161
      4,   13.2644653,    3.6038754
      5,    11.872674,   2.49395919
      6,   11.1002884,   0.89008373
      7,   11.1002884,  -0.89008373
      8,    11.872674,  -2.49395919
      9,   13.2644653,   -3.6038754
     10,   15.8900833,  -3.89971161
     11,   17.4939594,  -3.12732601
     12,   18.6038761,  -1.73553491
     13,          19.,           0.
     14,  -11.3961248,   1.73553491
     15,  -12.5060406,   3.12732601
     16,  -14.1099167,   3.89971161
     17,  -16.7355347,    3.6038754
     18,  -18.1273251,   2.49395919
     19,  -18.8997116,   0.89008373
     20,  -18.8997116,  -0.89008373
     21,  -18.1273251,  -2.49395919
     22,  -16.7355347,   -3.6038754
     23,  -14.1099167,  -3.89971161
     24,  -12.5060406,  -3.12732601
     25,  -11.3961248,  -1.73553491
     26,         -11.,           0.
     27,   28.2089558,           5.
     28,   26.4179096,           5.
     29,   24.6268654,           5.
     30,   22.8358212,           5.
     31,   21.0447769,           5.
     32,   18.3582096,           5.
     33,   16.5671635,           5.
     34,   14.7761192,           5.
     35,    12.985075,           5.
     36,   11.1940298,           5.
     37,   9.40298462,           5.
     38,   7.61194038,           5.
     39,   5.82089567,           5.
     40,   4.02985096,           5.
     41,   2.23880601,           5.
     42,  0.447761208,           5.
     43,  -2.23880601,           5.
     44,  -4.02985096,           5.
     45,  -5.82089567,           5.
     46,  -7.61194038,           5.
     47,  -9.40298462,           5.
     48,  -11.1940298,           5.
     49,   -12.985075,           5.
     50,  -14.7761192,           5.
     51,  -16.5671635,           5.
     52,  -18.3582096,           5.
     53,  -21.0447769,           5.
     54,  -22.8358212,           5.
     55,  -24.6268654,           5.
     56,  -26.4179096,           5.
     57,  -28.2089558,           5.
     58,          30.,           5.
     59,         -30.,           5.
     60,         -30.,   3.18181825
     61,         -30.,   1.36363637
     62,         -30., -0.454545468
     63,         -30.,  -1.36363637
     64,         -30.,  -3.18181825
     65,         -30.,          -5.
     66,  -28.2089558,          -5.
     67,  -26.4179096,          -5.
     68,  -24.6268654,          -5.
     69,  -22.8358212,          -5.
     70,  -21.0447769,          -5.
     71,  -18.3582096,          -5.
     72,  -16.5671635,          -5.
     73,  -14.7761192,          -5.
     74,   -12.985075,          -5.
     75,  -11.1940298,          -5.
     76,  -9.40298462,          -5.
     77,  -7.61194038,          -5.
     78,  -5.82089567,          -5.
     79,  -4.02985096,          -5.
     80,  -2.23880601,          -5.
     81, -0.447761208,          -5.
     82,   2.23880601,          -5.
     83,   4.02985096,          -5.
     84,   5.82089567,          -5.
     85,   7.61194038,          -5.
     86,   9.40298462,          -5.
     87,   11.1940298,          -5.
     88,    12.985075,          -5.
     89,   14.7761192,          -5.
     90,   16.5671635,          -5.
     91,   18.3582096,          -5.
     92,   21.0447769,          -5.
     93,   22.8358212,          -5.
     94,   24.6268654,          -5.
     95,   26.4179096,          -5.
     96,   28.2089558,          -5.
     97,          30.,          -5.
     98,          30.,  -3.18181825
     99,          30.,  -1.36363637
    100,          30.,  0.454545468
    101,          30.,   1.36363637
    102,          30.,   3.18181825
    103,   20.5011082,  -1.36423445
    104,   22.3145504,   -1.4715004
    105,   24.3907661,  -1.67875063
    106,   26.2787209,  -1.71152282
    107,   28.2645874,  -1.55570984
    108,   28.0729561, -0.0156707969
    109,   26.2435722, -0.00278889015
    110,   24.3752384, 0.0237814225
    111,   22.4426136,  0.517194927
    112,    20.759922,  -0.17147015
    113,   18.6846542,  -3.40775228
    114,   20.5074139,  -3.27340078
    115,   22.3337116,   -3.4898603
    116,    24.484848,  -3.35070729
    117,    26.356163,  -3.39388204
    118,    28.361248,  -3.27151489
    119,  -1.84204268,  -4.07958174
    120, -0.145655245,   -4.1535387
    121,   2.01363397,  -4.20498228
    122,       3.7198,  -4.14524364
    123,   5.54185438,  -4.14321566
    124,   7.38333893,  -4.17497587
    125,   9.41203976,  -4.26571989
    126,   11.4424152,   -4.0772891
    127,   11.3243217,  -3.17725992
    128,   9.27965832,  -3.20325446
    129,   7.61298704,  -3.22166562
    130,   5.64568758,  -3.27867222
    131,   3.79378104,  -3.28046632
    132,   1.81469977,  -3.29379034
    133,  0.102557227,  -3.21941376
    134,  -1.87514102,  -3.17106676
    135,  -3.84767938,  -3.40169311
    136,  -5.71384668,    -3.394907
    137,  -7.55643463,  -3.36223936
    138,  -9.41811943,  -3.30232024
    139,  -11.2318659,  -3.34898067
    140,   9.29905987,  -1.80314362
    141,      7.63729,  -1.73377883
    142,   5.68985224,  -1.79951632
    143,   3.81707335,  -1.79783714
    144,   1.95565164,  -1.79825282
    145, -0.0206864998,  -1.70266795
    146,  -1.88006318,  -1.65647674
    147,  -3.75885177,  -1.70098627
    148,    -5.607162,  -1.67020345
    149,  -7.38870668,  -1.80050635
    150,  -9.37040424,  -1.23949182
    151,    9.4348917, -0.00281406753
    152,   7.67483187, -0.0255204737
    153,   5.67900133, -0.0472382493
    154,   3.82289672, -0.0788764507
    155,   1.93842399, 0.0131714595
    156, 0.0257340353, 0.0101644741
    157,  -1.88571358,  0.017482128
    158,  -3.75719881, 0.0263945777
    159,  -5.59822559, 0.0627610013
    160,  -7.49268627, 0.0930394828
    161,  -9.32954216, 0.0853229538
    162,   9.27934837,   1.79817891
    163,   7.68766499,   1.71236074
    164,   5.68255138,   1.76836681
    165,   3.58393931,   1.68695605
    166,   1.86213887,   1.71384597
    167, -0.0340170413,   1.71641803
    168,  -1.91320193,   1.70046306
    169,  -3.80808139,   1.76512921
    170,   -5.6496067,   1.75000536
    171,  -7.59863949,   1.70046496
    172,  -9.39562798,   1.37158406
    173,   11.4660358,   3.35188293
    174,   9.42473793,   3.35665345
    175,   7.58176327,   3.41757727
    176,    5.7473793,   3.43891692
    177,    3.8924396,   3.46390414
    178,   1.94384313,   3.52278399
    179, -0.0351678059,   3.38043165
    180,  -1.86292994,   3.49628282
    181,   -3.8994844,   3.45253491
    182,  -5.73931742,   3.42106533
    183,  -7.57095194,   3.38530469
    184,  -9.40563107,   3.31839418
    185,  -11.2293863,   3.35350561
    186,   -28.362196,   3.27424026
    187,  -26.3570843,   3.41425538
    188,  -24.4968872,   3.43333292
    189,   -22.657938,   3.47012401
    190,   -20.536396,   3.58539891
    191,  -18.6981258,   3.40299392
    192,   18.6926003,   3.40672922
    193,   20.6059532,   3.45060921
    194,   22.6687565,    3.4020648
    195,   24.5140495,   3.44048762
    196,   26.3608971,   3.39966083
    197,   28.3706074,    3.2621839
    198,   20.6282368,   1.26560497
    199,   22.6607704,   1.63238513
    200,   24.4157391,   1.74791646
    201,   26.2927189,   1.70832598
    202,   28.2969608,   1.52801967
    203,   -18.688488,  -3.39589214
    204,  -20.7624664,  -3.38677478
    205,  -22.6043377,  -3.48088884
    206,  -24.4968834,  -3.43271208
    207,   -26.362051,  -3.40521717
    208,  -28.3716927,  -3.26268744
    209,  -20.6927242,  -1.77641904
    210,  -22.3083954,  -1.72770095
    211,  -24.4209995,  -1.74377692
    212,  -26.2959194,  -1.71722078
    213,  -28.2971306,  -1.53143048
    214,  -20.5564404, 0.00224831956
    215,  -22.3358841, 0.00307953847
    216,  -24.4164371, 0.0301318821
    217,   -26.246521, 0.0352934338
    218,  -28.0646992, 0.0186876897
    219,  -20.5659046,   1.83246553
    220,  -22.3199272,   1.77209377
    221,  -24.4206429,   1.76754498
    222,    -26.27458,   1.76206934
    223,  -28.2592392,   1.56478226
    224,   18.1273251,   2.49395919
    225,   16.7355347,    3.6038754
    226,          15.,           4.
    227,   14.1099167,   3.89971161
    228,   12.5060406,   3.12732601
    229,   11.3961248,   1.73553491
    230,          11.,           0.
    231,   11.3961248,  -1.73553491
    232,   12.5060406,  -3.12732601
    233,   14.1099167,  -3.89971161
    234,          15.,          -4.
    235,   16.7355347,   -3.6038754
    236,   18.1273251,  -2.49395919
    237,   -11.872674,   2.49395919
    238,  -13.2644653,    3.6038754
    239,         -15.,           4.
    240,  -15.8900833,   3.89971161
    241,  -17.4939594,   3.12732601
    242,  -18.6038761,   1.73553491
    243,         -19.,           0.
    244,  -18.6038761,  -1.73553491
    245,  -17.4939594,  -3.12732601
    246,  -15.8900833,  -3.89971161
    247,         -15.,          -4.
    248,  -13.2644653,   -3.6038754
    249,   -11.872674,  -2.49395919
    250,   29.1044769,           5.
    251,   27.3134327,           5.
    252,   25.5223885,           5.
    253,   23.7313442,           5.
    254,   21.9402981,           5.
    255,   20.1492538,           5.
    256,   19.2537308,           5.
    257,   17.4626865,           5.
    258,   15.6716413,           5.
    259,   13.8805971,           5.
    260,   12.0895519,           5.
    261,   10.2985077,           5.
    262,    8.5074625,           5.
    263,   6.71641779,           5.
    264,   4.92537308,           5.
    265,   3.13432837,           5.
    266,   1.34328353,           5.
    267, -0.447761208,           5.
    268,  -1.34328353,           5.
    269,  -3.13432837,           5.
    270,  -4.92537308,           5.
    271,  -6.71641779,           5.
    272,   -8.5074625,           5.
    273,  -10.2985077,           5.
    274,  -12.0895519,           5.
    275,  -13.8805971,           5.
    276,  -15.6716413,           5.
    277,  -17.4626865,           5.
    278,  -19.2537308,           5.
    279,  -20.1492538,           5.
    280,  -21.9402981,           5.
    281,  -23.7313442,           5.
    282,  -25.5223885,           5.
    283,  -27.3134327,           5.
    284,  -29.1044769,           5.
    285,         -30.,     4.090909
    286,         -30.,   2.27272725
    287,         -30.,  0.454545468
    288,         -30.,  -2.27272725
    289,         -30.,    -4.090909
    290,  -29.1044769,          -5.
    291,  -27.3134327,          -5.
    292,  -25.5223885,          -5.
    293,  -23.7313442,          -5.
    294,  -21.9402981,          -5.
    295,  -20.1492538,          -5.
    296,  -19.2537308,          -5.
    297,  -17.4626865,          -5.
    298,  -15.6716413,          -5.
    299,  -13.8805971,          -5.
    300,  -12.0895519,          -5.
    301,  -10.2985077,          -5.
    302,   -8.5074625,          -5.
    303,  -6.71641779,          -5.
    304,  -4.92537308,          -5.
    305,  -3.13432837,          -5.
    306,  -1.34328353,          -5.
    307,  0.447761208,          -5.
    308,   1.34328353,          -5.
    309,   3.13432837,          -5.
    310,   4.92537308,          -5.
    311,   6.71641779,          -5.
    312,    8.5074625,          -5.
    313,   10.2985077,          -5.
    314,   12.0895519,          -5.
    315,   13.8805971,          -5.
    316,   15.6716413,          -5.
    317,   17.4626865,          -5.
    318,   19.2537308,          -5.
    319,   20.1492538,          -5.
    320,   21.9402981,          -5.
    321,   23.7313442,          -5.
    322,   25.5223885,          -5.
    323,   27.3134327,          -5.
    324,   29.1044769,          -5.
    325,          30.,    -4.090909
    326,          30.,  -2.27272725
    327,          30., -0.454545468
    328,          30.,   2.27272725
    329,          30.,     4.090909
    330,   18.8997116,   0.89008373
    331,   18.8997116,  -0.89008373
    332,  -11.1002884,   0.89008373
    333,  -11.1002884,  -0.89008373
    334,   20.5706787,   4.35868502
    335,   -20.613987,   -4.3445015
    336,    28.788229,    4.1753974
    337,   26.8515244,   4.19891024
    338,   25.0267067,   4.22589159
    339,   23.2068081,   4.22194004
    340,   19.6728039,   4.10292292
    341,   17.0199814,   4.13068819
    342,  -28.7885189,  -4.17551231
    343,  -26.8521442,  -4.20042515
    344,  -25.0241127,  -4.22672081
    345,  -23.1898708,  -4.23389387
    346,  -19.6993618,  -4.08497238
    347,   -17.019453,   -4.1305871
    348,   17.0192966,  -4.13485622
    349,   18.7884426,  -4.33233881
    350,   27.8043499,   4.16641665
    351,   25.9347572,   4.21076775
    352,   13.3491459,  -4.32129526
    353,   -3.4892261,  -4.23046064
    354,  -7.13117838,  -4.19359207
    355,  -10.7542915,  -4.16990328
    356,  -12.5396976,   -4.1014986
    357,   10.8245182,   4.17130852
    358,  -26.8513241,   4.20199347
    359,  -28.7867107,   4.17875671
    360,  -25.0241547,   4.22694588
    361,  -18.7869053,   4.33836555
    362,  -21.3679028,   4.12341261
    363,  -13.3545752,   4.32524252
    364,  -11.6228733,   4.18390274
    365,   24.1129265,   4.22620869
    366,   22.2848186,   4.21018744
    367,   17.9702415,   4.16670656
    368,   8.95662403,   4.18847704
    369,   7.14068842,   4.21818876
    370,   5.33106232,   4.22826529
    371,   3.50740004,    4.2495966
    372,   1.81415236,   4.38357258
    373, -0.00599172805,   4.31641722
    374, -0.922469258,   4.10659933
    375,  -2.58124661,   4.26817703
    376,   -4.4217062,   4.23031902
    377,  -6.23171139,   4.21582079
    378,  -8.03986454,   4.19453669
    379,  -9.85275173,    4.1634903
    380,   -23.195467,   4.22903347
    381,  -27.8049412,  -4.16702843
    382,  -25.9347363,   -4.2133193
    383,  -24.0972023,  -4.22044516
    384,  -22.2983685,   -4.2636528
    385,   -17.968811,  -4.16402721
    386,  -9.85910988,  -4.16219854
    387,  -8.95457745,  -4.17044592
    388,  -6.22546577,  -4.19987726
    389,  -5.31429148,  -4.20825624
    390,   21.6327782,  -4.25245953
    391,   23.1412506,  -4.22031784
    392,   25.0145664,  -4.18831635
    393,   26.8500595,  -4.19613838
    394,   28.7862263,  -4.17815495
    395,   12.5648308,   4.14275408
    396,   -17.018713,   4.13474226
    397,   21.3576756,   4.23551607
    398,   18.7895164,   4.33527184
    399,   13.3609772,   4.32926798
    400,   11.6987009,   4.22944212
    401,   9.88747597,   4.16951656
    402,   8.04704285,    4.2054162
    403,    6.2342844,   4.22066975
    404,   4.41769981,   4.23269606
    405,    2.5963676,   4.27709579
    406,  0.926998973,   4.08566809
    407,  -1.78974712,   4.37421179
    408,  -3.49884057,   4.24108076
    409,  -5.32607746,   4.21872282
    410,  -7.13575172,   4.20235443
    411,  -8.94689465,   4.17474604
    412,    -10.75453,   4.16890574
    413,  -12.5391483,   4.10103035
    414,  -17.9697666,   4.16723776
    415,  -19.6769638,   4.11058569
    416,  -20.5550594,    4.3638792
    417,   -22.315836,   4.22632885
    418,  -24.0981331,   4.21983528
    419,  -25.9337921,   4.21520233
    420,  -27.8029137,   4.16978884
    421,   -21.410759,  -4.26736546
    422,  -18.7937202,  -4.32897854
    423,  -13.3559504,  -4.32101727
    424,  -11.6274128,  -4.17972469
    425,  -8.04488468,  -4.18115807
    426,  -4.39816189,  -4.21230268
    427,   -2.6999433,  -4.35225344
    428, -0.946608126,  -4.32430792
    429,   10.5584822,  -4.35481977
    430,   12.5101509,  -4.07769918
    431,   17.9678745,  -4.16704559
    432,   19.6786194,  -4.04449558
    433,   20.7272053,  -4.17841625
    434,   22.3767719,  -4.39252758
    435,   24.0790882,  -4.18102598
    436,   25.9319324,  -4.19769716
    437,   27.8018398,  -4.16730785
    438,   19.5184097,   1.54932964
    439,   10.3256283,   1.53789937
    440,  -19.6234989,   1.51528442
    441,  -10.4902592,   1.57447457
    442,   10.3375731,  -1.53833771
    443,  -19.6702175,  -1.52854908
    444,   19.5063438,  -1.56599808
    445,  -10.4918528,  -1.54104328
    446,   10.2649708, -0.478400856
    447,  -19.7341347, -0.475769609
    448,   10.2613697,   0.47801587
    449,  -19.7246361,  0.476710171
    450,   19.7566814,  0.494256437
    451,  -10.2669477,  0.569339871
    452,  -10.8772011,  -2.47520256
    453,   19.1156864,   2.46157789
    454,  -10.8691521,   2.48242617
    455,   10.8925238,   2.48655057
    456,  -19.1235561,   2.41968513
    457,   19.7372952, -0.582921684
    458,  -10.2598391, -0.502659321
    459,   29.2740536,   3.49270654
    460,  -29.2744503,  -3.49272823
    461,  -29.2177715,   2.75119877
    462,   29.2174759,  -2.75041175
    463,   29.1569805, -0.993251622
    464,   -29.153223,  0.996001303
    465,   29.1707306,  0.972504973
    466,   29.2007236,   1.87533677
    467,    -29.16922,  -0.97304213
    468,  -29.2009716,  -1.87587714
    469,  -29.2733345,   3.49538445
    470,  -29.1894016,   1.88792193
    471,  -29.0400429, 0.0115227643
    472,  -29.2290916,  -2.74125838
    473,   29.2729893,  -3.49456167
    474,   29.1906109,  -1.88561285
    475,   29.0439472, -0.0102970395
    476,   29.2284336,   2.74111366
    477,   8.26416206,  -4.42959309
    478,  -19.1397629,  -2.45780206
    479,   10.8829575,  -2.47591138
    480,   19.1210518,  -2.45085835
    481,   6.40577364,  -4.36378193
    482,   4.58529377,  -4.35732508
    483,   2.79435205,  -4.37355709
    484,  0.935383976,  -3.96985149
    485,   10.4030724,   -3.4333632
    486,  -19.7561817,   3.08282995
    487,   10.3954144,   3.33921313
    488,  -19.6802425,  -3.15620756
    489,   27.3212223,   3.33414936
    490,    23.590683,   3.41911054
    491,  -27.3225708,  -3.33729076
    492,  -23.5432644,  -3.43466878
    493,   25.4379063,   3.41750407
    494,  -25.4353886,  -3.42160916
    495,  -21.9357719,   3.54429889
    496,  -21.7794781,  -3.62573123
    497,  -2.93375254,   3.45051193
    498,   2.96425629,   3.50883722
    499,   -23.558445,   3.43335724
    500,   19.6344337,  -3.10887361
    501,  -10.3460226,  -3.31268573
    502,  -10.3347149,   3.31854463
    503,   19.6391125,   3.16736245
    504,    -4.824193,   3.42704773
    505,   4.82183218,   3.44055772
    506,  -4.78783464,  -3.39313316
    507,  -25.4342251,   3.42525101
    508,   25.4337635,  -3.37660956
    509,  -6.65471888,   3.39646983
    510,   6.66646528,   3.42280173
    511,  -6.62806225,  -3.36718845
    512,  -27.3085804,   3.35588479
    513,   27.3085957,  -3.34428406
    514,   12.0589018,   3.71285129
    515,  -8.49057484,   3.33983588
    516,   8.49780655,   3.39121103
    517,  -8.48270035,  -3.31476712
    518,   20.1068878,   2.39119768
    519,  -9.90818119,   2.41870356
    520,  -9.90703678,  -2.37479734
    521,   20.1229858,  -2.36034584
    522,   9.87696838,  -2.48915982
    523,  -20.1549168,  -2.46137667
    524,    9.8763113,   2.51632953
    525,   -19.928297,   2.30847216
    526,   2.85131669,  -3.50215411
    527,   9.41008663, -0.929108143
    528,   9.40866852,  0.917720377
    529,  -20.5827484, -0.919801652
    530,  -20.5401859,  0.932254255
    531,  -11.9555387,  -3.45029783
    532,   11.9311199,  -3.39070654
    533,  -11.9540243,   3.45194483
    534,   28.5697098,   2.37155771
    535,  -28.5706139,  -2.37299132
    536,  -28.5490074,   2.39464831
    537,   28.5504761,  -2.38922977
    538,   4.68970776,  -3.49278712
    539,   6.54755402,  -3.48446751
    540,   8.39758778,  -3.69173717
    541,  -22.0885925,    2.7995255
    542,  -21.8300705,  -2.75805855
    543,   8.54122734,  -1.32063591
    544,   8.55681419,   1.28435302
    545,  -21.4236202,  -1.28651559
    546,  -21.3774452,   1.34415805
    547,   3.34229231,  -2.59767556
    548,   3.30259085,   2.70582747
    549,  -3.36884165,   2.60334468
    550,   5.19964075,  -2.60355949
    551,   -23.969799,   2.60645628
    552,  -23.9620934,  -2.60032248
    553,   23.9948654,   2.58846784
    554,   7.06209898,  -2.56093168
    555,   5.23292732,   2.61906314
    556,  -5.23174191,     2.596416
    557,  -27.7672424,  -2.44882464
    558,  -27.7409668,   2.48055267
    559,   27.7658367,   2.44415092
    560,   27.7430573,  -2.46602106
    561,  -25.8498135,    2.6021266
    562,  -25.8594208,  -2.58303118
    563,  -5.19074583,  -2.54167819
    564,   25.8568268,   2.57180119
    565,   25.8553352,  -2.54863906
    566,   7.12710094,   2.59473157
    567,  -7.09837198,   2.54951262
    568,  -7.02800941,  -2.53403664
    569,    8.9355545,   2.60799193
    570,    21.149435,   2.42338443
    571,  -8.95880985,   2.45237732
    572,  -21.3845081,  0.451161414
    573,   -21.399086, -0.434791267
    574,    8.5889225,  0.432205945
    575,   8.58395863,  -0.45768106
    576,  -7.93136024,  -2.48239088
    577,    9.0701561,    -2.491575
    578,  -20.9760551,  -2.47516942
    579,  -8.04063129,   2.52900076
    580,   8.05475998,   2.61829829
    581,  -6.11302328,  -2.52644992
    582,   26.7919159,  -2.52429581
    583,   26.8076496,   2.51674891
    584,  -26.8097076,  -2.52424145
    585,  -26.7893772,   2.55478597
    586,  -6.16109943,   2.57027912
    587,   6.17997599,   2.60491514
    588,   24.9073296,  -2.52462864
    589,   24.9267883,   2.58776855
    590,  -24.9209404,  -2.59548163
    591,  -24.9201603,   2.60599375
    592,  -4.30929852,   2.60195947
    593,   4.25561953,   2.61914945
    594,   6.12761211,  -2.58752489
    595,    4.2626462,  -2.59742737
    596,   2.41608858,  -2.58638573
    597,   6.62613058,  -1.76326334
    598,   4.74450493,  -1.79019558
    599,  -4.72913074,   1.75396252
    600,   2.87509012,  -1.78316021
    601,  -25.3613338,   1.76994133
    602,   25.3451138,   -1.6967876
    603,  -6.60474348,   1.72853494
    604,  -22.0853672, -0.859535873
    605,  -22.0739002,  0.885761857
    606,   7.90689087, -0.895088553
    607,   7.92106867,  0.852925181
    608,    8.5028286,   2.00423646
    609,   27.2326813,  -1.65200579
    610,  -27.2243671,   1.67746449
    611,  -8.45146561,   1.76444602
    612,  -23.0088291,   2.63656855
    613,  -22.9510078,  -2.62246799
    614,  -21.3703766,   2.26522183
    615,   2.52280116,   2.87146783
    616,   7.84149408,  -2.49573874
    617,  -27.2595234,  -1.64111507
    618,   23.0896721,   2.54570937
    619,   27.2596111,   1.63508928
    620,  -4.26344395,  -2.54740024
    621,   21.7022972,   3.37208891
    622,    1.6247946,  -2.50735712
    623,   23.9186001,   -2.4984808
    624,   21.7450695,   1.48434305
    625,  -8.88388443,  -2.36975384
    626,   -6.5653944,  -1.68729579
    627,  -4.69039249,  -1.68162811
    628,   6.65135574,   1.73335099
    629,   25.3517399,   1.72593141
    630,  -25.3667641,  -1.72158825
    631,   23.5389385,   1.72028029
    632,   4.70215559,   1.73698902
    633,   2.59951997,   2.09133959
    634,   1.81140673,   2.52466869
    635,   22.1693344,   2.47666264
    636,  0.964858532,      -1.8937
    637,  -3.30787396,  -2.55211377
    638,   23.3808155,  -1.60231113
    639,   -6.1131525, -0.809303999
    640,  -26.7186871,   0.87579447
    641,  -4.21281004,  -0.82692486
    642,  -23.4244804,  -1.73489916
    643,  -23.4357128,   1.75573707
    644,   7.11541891,  0.848053038
    645,  -22.9248581,  0.886987209
    646,   26.7240219, -0.839894116
    647,   23.2015457,  0.966097534
    648,  -20.5758667,   2.70423007
    649,   8.44393921,  -2.86851263
    650,   7.10196447, -0.903492689
    651,  -27.6608906, -0.769635618
    652,  -8.23984241,  0.781935394
    653,  -6.10763073,  0.902825058
    654,   27.6653709,  0.770019054
    655,  0.955385685,  -2.88482141
    656,   3.34258413, -0.932269692
    657,   5.20945358, -0.937059104
    658,   5.19694376,  0.848621786
    659,   25.7915421, -0.849540889
    660,  -25.8100586,  0.903031945
    661,  -25.8144569, -0.840330303
    662,   25.7917805,  0.858729064
    663,  -4.23846531,  0.900848329
    664,  -5.16608095,  0.903111994
    665,  -22.9231739,  -0.86177063
    666,   24.8507309, -0.840083957
    667,   24.8627872,  0.872623146
    668,   23.4727573,  -3.36723518
    669,   6.15818834,  0.851308465
    670,  -24.8852024, -0.849232852
    671,  -24.8833046,  0.901272476
    672,   -7.1028204,  0.878980398
    673,   4.24353504,  0.806259692
    674,  -8.18702698,  -1.52599764
    675,   26.7374516,  0.826639593
    676,   4.27845907, -0.932400227
    677,   2.40993857,  -0.91590035
    678,  -26.7397175, -0.818458855
    679,   23.9707203,  0.902826607
    680,   27.6507034, -0.791222215
    681,  -5.14919519, -0.812838316
    682,  -27.6427574,  0.806396008
    683,    6.1550436,  -0.91564554
    684,    -7.236094, -0.871063828
    685,   21.4919682,  0.522367179
    686,  -2.39974952,   2.58325887
    687,  -2.87012434,    1.7352128
    688,   6.64740801, -0.0320892483
    689,   4.73838139, -0.0567821078
    690,    2.9076283, -0.0277861543
    691,  -25.3426628, 0.0300277676
    692,  -4.68699598, 0.0422254503
    693,  -21.3124847,   3.17034793
    694,   25.3192749, 0.0104533117
    695,   23.4620094,  0.151297286
    696,  -6.60843468, 0.0428730138
    697,  0.974277854,   1.89996946
    698,   2.53573465,   1.01880956
    699,  0.980042458,   2.98159909
    700,   1.45574582, -0.915504396
    701,   -2.3746407,  0.868120074
    702,  -2.77493501,  -3.46964598
    703,   27.1823463, -0.00881956145
    704,  -23.9202213,  0.892246962
    705,  -23.9184456, -0.857956588
    706,   3.41874671,  0.681072533
    707,  -28.4319916,   0.67947799
    708,  -3.31350708,  0.883424461
    709,  -27.1788788, 0.0246795304
    710,  -3.28814626, -0.841743886
    711,   22.8146667,  -2.47134948
    712,   28.4378357,  -0.67323029
    713,   23.8911095, -0.767327309
    714,  -2.82429028,  -1.68240571
    715,  -23.4065037, 0.0154530602
    716,  0.302287012,  -2.42590237
    717,  -8.30926609, -0.446042597
    718,   21.8819675, -0.406647056
    719,   21.4175606,  -2.38867617
    720, -0.487731427,  -2.47147584
    721,  -2.82789564, 0.0184859894
    722,   1.46399271,  0.932293177
    723,   22.8955116, -0.596548975
    724,   28.4499931,  0.648915172
    725,  -28.4463959, -0.648779571
    726,  -1.41365469,  0.852890134
    727,  -2.34728599,  -2.49457741
    728,  -2.35001945, -0.822821319
    729,  0.491027147, -0.885384262
    730,  0.272520214,   2.48288012
    731,  0.979645431, 0.0124901384
    732,   8.47219467,  -2.11889744
    733,  -21.4461727,  -2.00477266
    734,  -1.40108097, -0.823291063
    735, -0.523221314,   2.48720288
    736, -0.943482697,  -1.65467107
    737,  0.491890073,   0.90528357
    738,  -0.93048811, 0.0132086733
    739, -0.963215947,   1.68703079
    740,  -1.41466713,  -2.47278142
    741,    21.375021,  -1.16050565
    742, -0.944184065,  -3.41316652
    743,   21.3237343,   -3.5165627
    744, -0.463162839, -0.840440214
    745, -0.470625281,  0.864165962
    746,  -1.43732142,   2.52318287
    747, -0.956221938,   3.19874001
*Element, type=CPS3
   1, 348,  11, 235
   2, 431, 349, 113
   3, 234, 316,  10
   4, 316, 234,  89
   5, 352, 233,   9
   6, 315,  89, 233
   7, 480, 236, 113
   8, 431,  11, 348
   9, 432, 349, 318
  10, 521, 500, 114
  11, 457,  13, 331
  12, 685, 624, 198
  13, 647, 631, 199
  14, 667, 629, 200
  15, 703, 654, 675
  16, 724, 202, 654
  17, 466, 465, 101
  18, 476, 466, 328
  19, 534, 466, 476
  20, 459, 329, 336
  21, 350, 251, 337
  22, 337, 251,  28
  23, 351,  28, 252
  24, 338, 252,  29
  25, 589, 493, 195
  26, 662, 201, 629
  27, 352, 315, 233
  28, 314, 126,  87
  29, 313, 125,  86
  30, 477,  85, 312
  31, 481,  84, 311
  32, 482,  83, 310
  33, 483,  82, 309
  34, 307, 120,  81
  35, 306, 119,  80
  36, 427, 353, 305
  37, 388, 303,  78
  38, 386, 301,  76
  39, 356,  74, 300
  40, 423,  23, 299
  41,  23,  73, 299
  42,  23, 247,  73
  43, 246,  72, 298
  44, 385, 245, 203
  45, 346, 204, 335
  46, 421, 384, 294
  47, 345, 293,  69
  48, 344, 292,  68
  49, 343, 291,  67
  50, 460, 289, 342
  51, 342, 290,  66
  52, 505, 370, 404
  53, 510, 369, 403
  54, 516, 368, 402
  55, 487, 357, 401
  56, 514, 400, 173
  57, 357,  36, 261
  58, 524, 455, 487
  59,   5, 228, 173
  60, 400, 395, 260
  61, 399, 227, 259
  62,  34, 259, 227
  63, 341,   3, 225
  64, 398, 367, 192
  65, 518, 453, 438
  66, 635, 624, 199
  67, 635, 570, 624
  68, 635, 621, 570
  69, 618, 490, 194
  70, 679, 200, 631
  71,   2, 224, 192
  72, 518, 193, 503
  73, 450, 198, 438
  74, 356,  24, 248
  75, 458, 445, 150
  76, 717, 150, 674
  77, 684, 149, 626
  78, 692, 641, 158
  79, 710, 158, 641
  80, 734, 157, 728
  81, 729, 636, 700
  82, 677, 600, 656
  83, 676, 598, 657
  84, 683, 597, 650
  85, 543, 140, 527
  86, 527, 442, 446
  87, 448, 446, 230
  88, 528, 439, 162
  89, 439,   6, 229
  90, 524, 487, 174
  91, 569, 174, 516
  92, 608, 580, 163
  93, 566, 175, 510
  94, 587, 510, 176
  95, 669, 628, 164
  96, 650, 597, 141
  97, 452, 249, 139
  98, 385, 347, 245
  99, 478,  21, 244
 100, 529, 443, 447
 101, 572, 530, 546
 102, 551, 499, 188
 103, 419, 360, 282
 104, 358,  56, 283
 105, 420, 358, 283
 106, 359,  57, 284
 107, 469, 285,  60
 108, 536, 461, 470
 109, 707, 682, 223
 110, 468, 467,  63
 111, 535, 468, 472
 112, 472, 468, 288
 113, 557, 535, 208
 114, 584, 557, 491
 115, 709, 651, 678
 116, 640, 222, 610
 117, 585, 187, 512
 118, 558, 512, 186
 119, 470, 461, 286
 120, 449, 447, 243
 121, 530, 440, 219
 122, 541, 495, 189
 123, 418, 380, 281
 124, 360,  55, 282
 125, 530, 449, 440
 126, 525, 456, 486
 127, 415, 361, 278
 128, 415, 191, 361
 129, 362,  53, 280
 130, 417, 362, 280
 131, 693, 541, 614
 132, 648, 486, 190
 133, 396, 240,  51
 134, 240, 239, 276
 135, 363,  16, 238
 136, 363, 275,  16
 137, 533, 364, 413
 138, 413, 364, 274
 139, 519, 454, 441
 140, 611, 171, 579
 141, 696, 639, 159
 142, 672, 653, 603
 143, 653, 170, 603
 144, 664, 599, 170
 145, 641, 627, 147
 146, 533, 237, 185
 147, 519, 184, 502
 148, 458,  26, 333
 149, 451, 172, 441
 150, 652, 611, 172
 151, 717, 674, 684
 152, 336, 329, 250
 153, 365,  29, 253
 154, 339, 253,  30
 155, 553, 195, 490
 156, 366,  30, 254
 157, 397, 366, 254
 158, 621, 366, 397
 159, 340, 193, 334
 160, 367, 257, 341
 161,  33, 258,   3
 162, 368,  37, 262
 163, 369,  38, 263
 164, 370,  39, 264
 165, 371,  40, 265
 166, 498, 371, 405
 167, 615, 498, 178
 168, 698, 155, 690
 169, 656, 600, 143
 170, 372,  41, 266
 171, 406, 178, 372
 172, 699, 697, 634
 173, 737, 697, 167
 174, 700, 636, 144
 175, 373,  42, 267
 176, 374, 373, 267
 177, 739, 168, 726
 178, 745, 739, 726
 179, 744, 738, 734
 180, 375,  43, 269
 181, 408, 375, 269
 182, 549, 497, 181
 183, 708, 687, 169
 184, 728, 721, 710
 185, 376,  44, 270
 186, 409, 376, 270
 187, 556, 504, 182
 188, 663, 169, 599
 189, 377,  45, 271
 190, 410, 377, 271
 191, 567, 509, 183
 192, 586, 509, 567
 193, 378,  46, 272
 194, 411, 379, 184
 195, 571, 515, 184
 196, 579, 183, 515
 197, 379,  47, 273
 198, 502, 379, 412
 199, 396, 241,  17
 200, 380,  54, 281
 201, 381,  66, 291
 202, 382,  67, 292
 203, 383,  68, 293
 204, 384,  69, 294
 205, 335,  70, 295
 206, 385,  71, 297
 207, 423, 356, 248
 208, 386, 355, 301
 209, 425, 387, 302
 210, 388, 354, 303
 211, 426, 389, 304
 212, 702, 353, 427
 213, 428, 119, 306
 214, 484, 307, 308
 215, 483, 121,  82
 216, 482, 122,  83
 217, 481, 123,  84
 218, 477, 124,  85
 219, 429, 125, 313
 220, 430, 126, 314
 221, 432, 113, 349
 222, 390,  92, 320
 223, 719, 711, 104
 224, 741, 112, 103
 225, 741, 718, 112
 226, 743, 433, 390
 227, 391,  93, 321
 228, 711, 638, 104
 229, 723, 713, 695
 230, 723, 638, 713
 231, 434, 391, 115
 232, 392,  94, 322
 233, 565, 508, 117
 234, 659, 602, 106
 235, 666, 105, 602
 236, 435, 392, 116
 237, 393,  95, 323
 238, 560, 513, 118
 239, 680, 646, 609
 240, 646, 106, 609
 241, 436, 393, 117
 242, 394,  96, 324
 243, 473, 325,  98
 244, 474, 462, 326
 245, 537, 462, 474
 246, 463,  99, 327
 247, 712, 680, 107
 248, 457, 444, 103
 249, 521, 480, 500
 250, 743, 719, 114
 251, 711, 623, 638
 252, 588, 508, 565
 253, 582, 513, 560
 254, 501, 355, 386
 255, 520, 501, 138
 256, 520, 452, 501
 257, 387,  76, 302
 258, 576, 517, 137
 259, 625, 517, 576
 260, 511, 354, 388
 261, 581, 511, 136
 262, 568, 137, 511
 263, 389,  78, 304
 264, 620, 506, 135
 265, 563, 136, 506
 266, 702, 427, 119
 267, 727, 637, 702
 268, 637, 147, 620
 269, 742, 119, 428
 270, 742, 428, 120
 271, 720, 716, 145
 272, 742, 720, 740
 273, 484, 133, 120
 274, 655, 484, 132
 275, 716, 636, 145
 276, 655, 622, 636
 277, 526, 121, 483
 278, 526, 483, 122
 279, 547, 526, 131
 280, 596, 526, 547
 281, 538, 122, 482
 282, 538, 482, 123
 283, 550, 538, 130
 284, 595, 538, 550
 285, 539, 123, 481
 286, 539, 481, 124
 287, 554, 539, 129
 288, 594, 539, 554
 289, 540, 124, 477
 290, 540, 129, 124
 291, 732, 616, 649
 292, 649, 616, 129
 293, 485, 125, 429
 294, 485, 128, 125
 295, 522, 479, 442
 296, 522, 485, 479
 297, 532, 430, 232
 298, 532, 232,   8
 299, 479,   8, 231
 300, 575, 527, 151
 301, 574, 528, 544
 302, 644, 607, 163
 303, 657, 598, 142
 304, 673, 632, 165
 305, 698, 165, 633
 306, 544, 528, 162
 307, 658, 164, 632
 308, 593, 505, 177
 309, 548, 177, 498
 310, 722, 166, 697
 311, 746, 739, 735
 312, 701, 168, 687
 313, 519, 502, 454
 314, 555, 176, 505
 315, 699, 634, 178
 316, 735, 730, 179
 317, 686, 497, 549
 318, 592, 504, 556
 319, 591, 507, 561
 320, 561, 507, 187
 321, 660, 601, 222
 322, 661, 212, 630
 323, 562, 207, 494
 324, 590, 494, 206
 325, 552, 206, 492
 326, 613, 492, 205
 327, 665, 642, 210
 328, 645, 605, 220
 329, 704, 643, 221
 330, 671, 601, 660
 331, 612, 499, 551
 332, 564, 196, 493
 333, 583, 489, 196
 334, 559, 534, 197
 335, 414, 241, 396
 336, 518, 503, 453
 337, 619, 202, 559
 338, 523, 488, 478
 339, 523, 478, 443
 340, 733, 578, 209
 341, 542, 205, 496
 342, 573, 529, 214
 343, 545, 209, 529
 344, 670, 630, 211
 345, 705, 642, 665
 346, 467,  62,  63
 347, 678, 651, 617
 348, 464,  61, 287
 349, 682, 640, 610
 350, 546, 530, 219
 351, 191,  18, 241
 352, 453, 224,   1
 353, 367, 341,   2
 354, 258, 226,   3
 355, 227, 226,  34
 356, 395,  35, 260
 357, 455,   5, 173
 358, 448, 230,   6
 359, 442, 231,   7
 360, 532,   8, 127
 361, 234, 233,  89
 362, 348,  10,  90
 363, 236,  11, 113
 364, 454, 237,  14
 365, 533, 413,  15
 366, 239,  16,  50
 367, 276, 239,  50
 368, 414, 396, 277
 369, 456,  18, 191
 370, 449, 243,  19
 371, 443, 244,  20
 372, 245,  21, 203
 373, 347, 246,  22
 374, 298, 247, 246
 375, 531, 249,  24
 376, 350, 336,  27
 377, 351, 337,  28
 378, 365, 338,  29
 379, 366, 339,  30
 380, 397,  31, 334
 381, 398, 340, 256
 382, 398, 256,  32
 383, 341, 257,  33
 384, 258,  34, 226
 385, 399, 259,  35
 386, 400, 260,  36
 387, 401,  37, 368
 388, 402,  38, 369
 389, 403,  39, 370
 390, 404,  40, 371
 391, 405,  41, 372
 392, 406,  42, 373
 393, 374, 179, 373
 394, 407, 268,  43
 395, 408, 269,  44
 396, 409, 270,  45
 397, 410, 271,  46
 398, 411,  47, 379
 399, 412,  48, 364
 400, 413,  49, 363
 401, 275,  50,  16
 402, 276,  51, 240
 403, 414,  52, 361
 404, 416, 415, 279
 405, 416, 279,  53
 406, 417, 280,  54
 407, 418, 281,  55
 408, 419, 282,  56
 409, 420, 283,  57
 410, 284,  59, 285
 411, 469, 461, 186
 412, 470, 286,  61
 413, 471, 287,  62
 414, 472,  64, 460
 415, 289,  65, 290
 416, 381, 342,  66
 417, 382, 343,  67
 418, 383, 344,  68
 419, 384, 345,  69
 420, 421,  70, 335
 421, 422, 346, 296
 422, 422, 296,  71
 423, 347, 297,  72
 424, 298,  73, 247
 425, 423, 299,  74
 426, 424, 300,  75
 427, 425,  77, 354
 428, 426,  79, 353
 429, 427,  80, 119
 430, 428,  81, 120
 431, 484, 120, 307
 432, 308,  82, 121
 433, 309,  83, 122
 434, 310,  84, 123
 435, 311,  85, 124
 436, 312,  86, 125
 437, 429,  87, 126
 438, 430,  88, 352
 439, 316,  90,  10
 440, 431,  91, 349
 441, 433, 432, 319
 442, 433, 319,  92
 443, 434, 320,  93
 444, 435, 321,  94
 445, 436, 322,  95
 446, 437, 323,  96
 447, 324,  97, 325
 448, 473, 462, 118
 449, 474, 326,  99
 450, 475, 327, 100
 451, 476, 102, 459
 452, 329,  58, 250
 453, 457, 450,  13
 454, 444, 331,  12
 455, 458, 451,  26
 456, 445, 333,  25
 457, 334,  31, 255
 458, 340, 334, 255
 459, 346, 335, 295
 460, 496, 384, 421
 461, 336, 250,  27
 462, 459, 336, 197
 463, 489, 337, 196
 464, 489, 350, 337
 465, 493, 338, 195
 466, 493, 351, 338
 467, 490, 339, 194
 468, 490, 365, 339
 469, 340, 255, 256
 470, 503, 340, 192
 471, 341,  33,   3
 472, 341, 225,   2
 473, 460, 342, 208
 474, 342, 289, 290
 475, 491, 343, 207
 476, 491, 381, 343
 477, 494, 344, 206
 478, 494, 382, 344
 479, 492, 345, 205
 480, 492, 383, 345
 481, 346, 295, 296
 482, 488, 346, 203
 483, 347,  72, 246
 484, 347,  22, 245
 485, 348, 235,  10
 486, 348,  90, 317
 487, 431, 113,  11
 488, 349,  91, 318
 489, 350, 197, 336
 490, 350,  27, 251
 491, 351, 252, 338
 492, 351, 196, 337
 493, 430, 352,   9
 494, 352,  88, 315
 495, 506, 426, 135
 496, 353,  79, 305
 497, 517, 425, 137
 498, 354,  77, 303
 499, 424, 355, 139
 500, 355,  75, 301
 501, 424, 356, 300
 502, 531, 356, 424
 503, 401, 368, 174
 504, 400, 357, 173
 505, 512, 358, 420
 506, 419, 358, 187
 507, 420, 359, 186
 508, 359, 284, 285
 509, 507, 360, 419
 510, 418, 360, 188
 511, 414, 191, 241
 512, 361,  52, 278
 513, 495, 362, 417
 514, 416, 362, 190
 515, 413, 238,  15
 516, 363,  49, 275
 517, 502, 412, 185
 518, 364,  48, 274
 519, 365, 253, 339
 520, 365, 195, 338
 521, 397, 254,  31
 522, 366, 194, 339
 523, 367,   2, 192
 524, 367,  32, 257
 525, 402, 369, 175
 526, 487, 401, 174
 527, 403, 370, 176
 528, 516, 402, 175
 529, 404, 371, 177
 530, 510, 403, 176
 531, 405, 372, 178
 532, 505, 404, 177
 533, 406, 373, 179
 534, 498, 405, 178
 535, 374, 267, 268
 536, 699, 406, 179
 537, 407, 374, 268
 538, 747, 374, 180
 539, 497, 375, 408
 540, 407, 375, 180
 541, 504, 376, 409
 542, 408, 376, 181
 543, 509, 377, 410
 544, 409, 377, 182
 545, 515, 378, 411
 546, 410, 378, 183
 547, 412, 379, 273
 548, 515, 411, 184
 549, 499, 380, 418
 550, 417, 380, 189
 551, 381, 291, 343
 552, 381, 208, 342
 553, 382, 292, 344
 554, 382, 207, 343
 555, 383, 293, 345
 556, 383, 206, 344
 557, 421, 294,  70
 558, 384, 205, 345
 559, 422, 385, 203
 560, 385, 297, 347
 561, 387, 386,  76
 562, 501, 386, 138
 563, 517, 387, 425
 564, 387, 138, 386
 565, 389, 388,  78
 566, 511, 388, 136
 567, 506, 389, 426
 568, 389, 136, 388
 569, 434, 390, 320
 570, 743, 390, 115
 571, 435, 391, 321
 572, 668, 391, 435
 573, 436, 392, 322
 574, 508, 392, 436
 575, 437, 393, 323
 576, 513, 393, 437
 577, 437, 394, 118
 578, 394, 324, 325
 579, 395, 228,   4
 580, 399, 395,   4
 581, 396,  17, 240
 582, 396,  51, 277
 583, 397, 334, 193
 584, 621, 397, 193
 585, 398,  32, 367
 586, 398, 192, 340
 587, 399,  35, 395
 588, 399,   4, 227
 589, 400,  36, 357
 590, 514, 173, 228
 591, 401, 357, 261
 592, 401, 261,  37
 593, 402, 368, 262
 594, 402, 262,  38
 595, 403, 369, 263
 596, 403, 263,  39
 597, 404, 370, 264
 598, 404, 264,  40
 599, 405, 371, 265
 600, 405, 265,  41
 601, 406, 372, 266
 602, 406, 266,  42
 603, 407,  43, 375
 604, 407, 180, 374
 605, 408,  44, 376
 606, 497, 408, 181
 607, 409,  45, 377
 608, 504, 409, 182
 609, 410,  46, 378
 610, 509, 410, 183
 611, 411, 378, 272
 612, 411, 272,  47
 613, 412, 273,  48
 614, 412, 364, 185
 615, 413, 274,  49
 616, 413, 363, 238
 617, 414, 277,  52
 618, 414, 361, 191
 619, 415, 278, 279
 620, 486, 415, 190
 621, 416,  53, 362
 622, 416, 190, 415
 623, 417,  54, 380
 624, 495, 417, 189
 625, 418,  55, 360
 626, 499, 418, 188
 627, 419,  56, 358
 628, 507, 419, 187
 629, 420,  57, 359
 630, 512, 420, 186
 631, 421, 335, 204
 632, 496, 421, 204
 633, 422,  71, 385
 634, 422, 203, 346
 635, 423,  74, 356
 636, 423, 248,  23
 637, 424,  75, 355
 638, 531, 424, 139
 639, 425, 302,  77
 640, 425, 354, 137
 641, 426, 304,  79
 642, 426, 353, 135
 643, 427, 305,  80
 644, 702, 119, 134
 645, 428, 306,  81
 646, 742, 120, 133
 647, 429, 313,  87
 648, 485, 429, 126
 649, 430, 314,  88
 650, 430,   9, 232
 651, 431, 348, 317
 652, 431, 317,  91
 653, 432, 318, 319
 654, 500, 432, 114
 655, 433,  92, 390
 656, 433, 114, 432
 657, 434,  93, 391
 658, 434, 115, 390
 659, 435,  94, 392
 660, 668, 435, 116
 661, 436,  95, 393
 662, 508, 436, 117
 663, 437,  96, 394
 664, 513, 437, 118
 665, 438,   1, 330
 666, 450, 438, 330
 667, 455, 439, 229
 668, 528, 448, 439
 669, 440,  19, 242
 670, 456, 440, 242
 671, 441,  14, 332
 672, 451, 441, 332
 673, 446, 442,   7
 674, 577, 522, 140
 675, 447, 443,  20
 676, 523, 204, 488
 677, 480, 444,  12
 678, 457, 103, 112
 679, 452, 445,  25
 680, 458, 150, 161
 681, 446,   7, 230
 682, 527, 446, 151
 683, 447,  20, 243
 684, 529, 447, 214
 685, 448, 151, 446
 686, 448,   6, 439
 687, 449, 214, 447
 688, 449,  19, 440
 689, 450, 330,  13
 690, 450, 112, 198
 691, 451, 332,  26
 692, 451, 161, 172
 693, 452,  25, 249
 694, 501, 452, 139
 695, 453, 192, 224
 696, 453,   1, 438
 697, 454, 185, 237
 698, 454,  14, 441
 699, 455, 229,   5
 700, 487, 455, 173
 701, 456, 242,  18
 702, 486, 456, 191
 703, 457, 112, 450
 704, 457, 331, 444
 705, 458, 161, 451
 706, 458, 333, 445
 707, 534, 476, 197
 708, 459, 102, 329
 709, 535, 472, 208
 710, 460,  64, 289
 711, 469, 186, 359
 712, 461,  60, 286
 713, 473, 118, 394
 714, 462,  98, 326
 715, 474, 463, 107
 716, 475, 463, 327
 717, 470, 464, 223
 718, 471, 464, 287
 719, 724, 475, 465
 720, 465, 100, 101
 721, 466, 202, 465
 722, 466, 101, 328
 723, 725, 213, 651
 724, 725, 471, 467
 725, 468, 213, 467
 726, 468,  63, 288
 727, 469, 359, 285
 728, 469,  60, 461
 729, 470,  61, 464
 730, 536, 470, 223
 731, 471,  62, 467
 732, 707, 471, 218
 733, 472, 288,  64
 734, 472, 460, 208
 735, 473, 394, 325
 736, 473,  98, 462
 737, 474,  99, 463
 738, 537, 474, 107
 739, 475, 100, 465
 740, 712, 475, 108
 741, 476, 328, 102
 742, 476, 459, 197
 743, 477, 312, 125
 744, 540, 477, 125
 745, 478, 203,  21
 746, 478, 244, 443
 747, 479, 127,   8
 748, 479, 231, 442
 749, 480,  12, 236
 750, 500, 480, 113
 751, 481, 311, 124
 752, 539, 124, 129
 753, 482, 310, 123
 754, 538, 123, 130
 755, 483, 309, 122
 756, 526, 122, 131
 757, 484, 308, 121
 758, 484, 121, 132
 759, 485, 126, 127
 760, 485, 127, 479
 761, 486, 191, 415
 762, 648, 525, 486
 763, 487, 173, 357
 764, 569, 524, 174
 765, 488, 204, 346
 766, 488, 203, 478
 767, 583, 559, 489
 768, 489, 197, 350
 769, 618, 553, 490
 770, 490, 195, 365
 771, 584, 207, 562
 772, 491, 208, 381
 773, 613, 552, 492
 774, 492, 206, 383
 775, 589, 564, 493
 776, 493, 196, 351
 777, 590, 562, 494
 778, 494, 207, 382
 779, 612, 541, 189
 780, 693, 362, 495
 781, 542, 496, 204
 782, 496, 205, 384
 783, 592, 549, 181
 784, 497, 180, 375
 785, 615, 548, 498
 786, 498, 177, 371
 787, 591, 551, 188
 788, 499, 189, 380
 789, 500, 113, 432
 790, 719, 521, 114
 791, 501, 139, 355
 792, 625, 520, 138
 793, 502, 184, 379
 794, 502, 185, 454
 795, 503, 193, 340
 796, 503, 192, 453
 797, 586, 556, 182
 798, 504, 181, 376
 799, 593, 555, 505
 800, 505, 176, 370
 801, 620, 563, 506
 802, 506, 136, 389
 803, 585, 561, 187
 804, 507, 188, 360
 805, 582, 565, 117
 806, 508, 116, 392
 807, 579, 567, 183
 808, 509, 182, 377
 809, 587, 566, 510
 810, 510, 175, 369
 811, 581, 568, 511
 812, 511, 137, 354
 813, 558, 186, 536
 814, 512, 187, 358
 815, 560, 118, 537
 816, 513, 117, 393
 817, 514, 228, 395
 818, 514, 395, 400
 819, 571, 184, 519
 820, 515, 183, 378
 821, 580, 569, 516
 822, 516, 174, 368
 823, 576, 137, 568
 824, 517, 138, 387
 825, 518, 438, 198
 826, 570, 518, 198
 827, 519, 441, 172
 828, 571, 519, 172
 829, 520, 150, 445
 830, 520, 445, 452
 831, 521, 103, 444
 832, 521, 444, 480
 833, 522, 442, 140
 834, 522, 128, 485
 835, 523, 443, 209
 836, 578, 523, 209
 837, 524, 162, 439
 838, 524, 439, 455
 839, 525, 219, 440
 840, 525, 440, 456
 841, 595, 547, 131
 842, 526, 132, 121
 843, 575, 151, 574
 844, 527, 140, 442
 845, 608, 162, 569
 846, 528, 151, 448
 847, 573, 214, 572
 848, 529, 209, 443
 849, 614, 546, 219
 850, 530, 214, 449
 851, 531, 139, 249
 852, 531,  24, 356
 853, 532, 127, 126
 854, 532, 126, 430
 855, 533,  15, 237
 856, 533, 185, 364
 857, 559, 197, 489
 858, 534, 202, 466
 859, 557, 208, 491
 860, 535, 213, 468
 861, 558, 536, 223
 862, 536, 186, 461
 863, 560, 537, 107
 864, 537, 118, 462
 865, 594, 550, 130
 866, 538, 131, 122
 867, 616, 554, 129
 868, 539, 130, 123
 869, 540, 125, 128
 870, 649, 128, 577
 871, 614, 220, 546
 872, 693, 614, 648
 873, 578, 542, 204
 874, 613, 542, 210
 875, 606, 543, 575
 876, 732, 141, 616
 877, 607, 574, 544
 878, 607, 544, 163
 879, 604, 545, 573
 880, 733, 210, 542
 881, 605, 572, 546
 882, 605, 546, 220
 883, 600, 596, 547
 884, 600, 547, 143
 885, 633, 548, 615
 886, 593, 548, 165
 887, 687, 549, 169
 888, 687, 686, 549
 889, 598, 595, 550
 890, 598, 550, 142
 891, 643, 551, 221
 892, 643, 612, 551
 893, 642, 552, 613
 894, 590, 552, 211
 895, 631, 553, 618
 896, 589, 553, 200
 897, 597, 594, 554
 898, 597, 554, 141
 899, 632, 555, 593
 900, 587, 555, 164
 901, 599, 592, 556
 902, 599, 556, 170
 903, 617, 557, 584
 904, 557, 213, 535
 905, 610, 558, 223
 906, 610, 585, 558
 907, 619, 559, 583
 908, 559, 202, 534
 909, 609, 560, 107
 910, 609, 582, 560
 911, 601, 591, 561
 912, 601, 561, 222
 913, 630, 562, 590
 914, 584, 562, 212
 915, 627, 563, 620
 916, 581, 563, 148
 917, 629, 564, 589
 918, 583, 564, 201
 919, 602, 588, 565
 920, 602, 565, 106
 921, 628, 566, 587
 922, 580, 566, 163
 923, 603, 586, 567
 924, 603, 567, 171
 925, 626, 568, 581
 926, 576, 568, 149
 927, 569, 162, 524
 928, 580, 516, 175
 929, 570, 193, 518
 930, 624, 570, 198
 931, 611, 571, 172
 932, 611, 579, 571
 933, 573, 572, 215
 934, 572, 214, 530
 935, 604, 573, 215
 936, 573, 545, 529
 937, 575, 574, 152
 938, 574, 151, 528
 939, 606, 575, 152
 940, 575, 543, 527
 941, 674, 576, 149
 942, 674, 625, 576
 943, 577, 128, 522
 944, 732, 140, 543
 945, 578, 204, 523
 946, 733, 209, 545
 947, 579, 171, 567
 948, 579, 515, 571
 949, 580, 175, 566
 950, 608, 163, 544
 951, 581, 136, 563
 952, 626, 581, 148
 953, 582, 106, 565
 954, 582, 117, 513
 955, 583, 196, 564
 956, 619, 583, 201
 957, 584, 491, 207
 958, 617, 584, 212
 959, 585, 222, 561
 960, 585, 512, 558
 961, 586, 170, 556
 962, 586, 182, 509
 963, 587, 176, 555
 964, 628, 587, 164
 965, 623, 588, 105
 966, 588, 116, 508
 967, 589, 195, 553
 968, 629, 589, 200
 969, 590, 206, 552
 970, 630, 590, 211
 971, 591, 221, 551
 972, 591, 188, 507
 973, 592, 169, 549
 974, 592, 181, 504
 975, 593, 177, 548
 976, 632, 593, 165
 977, 594, 142, 550
 978, 594, 130, 539
 979, 595, 143, 547
 980, 595, 131, 538
 981, 622, 596, 144
 982, 596, 132, 526
 983, 650, 141, 606
 984, 597, 142, 594
 985, 683, 657, 142
 986, 598, 143, 595
 987, 664, 663, 599
 988, 599, 169, 592
 989, 676, 656, 143
 990, 600, 144, 596
 991, 660, 222, 640
 992, 601, 221, 591
 993, 659, 106, 646
 994, 602, 105, 588
 995, 672, 171, 652
 996, 603, 170, 586
 997, 665, 604, 215
 998, 604, 210, 545
 999, 645, 220, 643
1000, 605, 215, 572
1001, 650, 606, 152
1002, 606, 141, 543
1003, 644, 163, 628
1004, 607, 152, 574
1005, 608, 544, 162
1006, 608, 569, 580
1007, 712, 107, 463
1008, 609, 106, 582
1009, 707, 223, 464
1010, 610, 222, 585
1011, 652, 172, 161
1012, 652, 171, 611
1013, 612, 220, 541
1014, 612, 189, 499
1015, 613, 205, 542
1016, 642, 613, 210
1017, 648, 614, 219
1018, 614, 541, 220
1019, 634, 615, 178
1020, 634, 633, 615
1021, 616, 141, 554
1022, 649, 129, 540
1023, 617, 213, 557
1024, 678, 617, 212
1025, 635, 618, 194
1026, 631, 618, 199
1027, 675, 619, 201
1028, 675, 654, 619
1029, 637, 620, 135
1030, 627, 620, 147
1031, 621, 193, 570
1032, 621, 194, 366
1033, 622, 132, 596
1034, 636, 622, 144
1035, 623, 116, 588
1036, 638, 623, 105
1037, 685, 198, 112
1038, 624, 111, 199
1039, 625, 150, 520
1040, 625, 138, 517
1041, 626, 149, 568
1042, 639, 626, 148
1043, 710, 641, 147
1044, 627, 148, 563
1045, 669, 644, 628
1046, 628, 163, 566
1047, 667, 662, 629
1048, 629, 201, 564
1049, 670, 661, 630
1050, 630, 212, 562
1051, 647, 199, 111
1052, 631, 200, 553
1053, 673, 658, 632
1054, 632, 164, 555
1055, 706, 690, 154
1056, 633, 165, 548
1057, 730, 697, 699
1058, 634, 166, 633
1059, 635, 199, 618
1060, 635, 194, 621
1061, 700, 144, 677
1062, 716, 655, 636
1063, 702, 637, 135
1064, 727, 714, 637
1065, 713, 110, 695
1066, 711, 668, 623
1067, 681, 148, 627
1068, 696, 684, 639
1069, 709, 640, 682
1070, 660, 640, 217
1071, 692, 681, 641
1072, 681, 159, 639
1073, 665, 210, 604
1074, 642, 211, 552
1075, 704, 645, 643
1076, 643, 220, 612
1077, 688, 644, 669
1078, 644, 152, 607
1079, 715, 645, 704
1080, 645, 215, 605
1081, 703, 646, 680
1082, 659, 646, 109
1083, 695, 647, 111
1084, 695, 679, 647
1085, 693, 648, 190
1086, 648, 219, 525
1087, 649, 540, 128
1088, 732, 649, 577
1089, 688, 650, 152
1090, 688, 683, 650
1091, 725, 651, 218
1092, 651, 213, 617
1093, 717, 652, 161
1094, 672, 652, 160
1095, 696, 653, 672
1096, 692, 664, 159
1097, 724, 654, 108
1098, 654, 202, 619
1099, 655, 133, 484
1100, 655, 132, 622
1101, 690, 677, 656
1102, 690, 656, 154
1103, 689, 676, 657
1104, 689, 657, 153
1105, 689, 658, 673
1106, 669, 658, 153
1107, 694, 666, 659
1108, 694, 659, 109
1109, 691, 660, 217
1110, 691, 671, 660
1111, 691, 661, 670
1112, 678, 661, 217
1113, 694, 662, 667
1114, 675, 662, 109
1115, 692, 663, 664
1116, 708, 663, 158
1117, 664, 170, 653
1118, 664, 653, 159
1119, 715, 665, 215
1120, 715, 705, 665
1121, 713, 666, 110
1122, 666, 602, 659
1123, 679, 667, 200
1124, 694, 667, 110
1125, 668, 115, 391
1126, 668, 116, 623
1127, 669, 164, 658
1128, 688, 669, 153
1129, 705, 670, 211
1130, 691, 670, 216
1131, 704, 671, 216
1132, 671, 221, 601
1133, 672, 603, 171
1134, 696, 672, 160
1135, 706, 673, 165
1136, 689, 673, 154
1137, 674, 150, 625
1138, 684, 674, 149
1139, 675, 201, 662
1140, 703, 675, 109
1141, 676, 154, 656
1142, 676, 143, 598
1143, 700, 677, 155
1144, 677, 144, 600
1145, 678, 212, 661
1146, 709, 678, 217
1147, 679, 110, 667
1148, 679, 631, 647
1149, 680, 609, 107
1150, 703, 680, 108
1151, 681, 639, 148
1152, 681, 627, 641
1153, 682, 610, 223
1154, 709, 682, 218
1155, 683, 153, 657
1156, 683, 142, 597
1157, 717, 684, 160
1158, 684, 626, 639
1159, 718, 685, 112
1160, 685, 111, 624
1161, 746, 686, 168
1162, 686, 180, 497
1163, 708, 701, 687
1164, 687, 168, 686
1165, 688, 152, 644
1166, 688, 153, 683
1167, 689, 153, 658
1168, 689, 154, 676
1169, 706, 698, 690
1170, 690, 155, 677
1171, 691, 217, 661
1172, 691, 216, 671
1173, 692, 159, 681
1174, 692, 158, 663
1175, 693, 190, 362
1176, 693, 495, 541
1177, 694, 109, 662
1178, 694, 110, 666
1179, 695, 110, 679
1180, 723, 111, 718
1181, 696, 160, 684
1182, 696, 159, 653
1183, 737, 722, 697
1184, 697, 166, 634
1185, 698, 633, 166
1186, 722, 698, 166
1187, 699, 178, 406
1188, 730, 699, 179
1189, 731, 700, 155
1190, 731, 729, 700
1191, 721, 701, 708
1192, 726, 701, 157
1193, 702, 135, 353
1194, 727, 146, 714
1195, 703, 109, 646
1196, 703, 108, 654
1197, 704, 221, 671
1198, 715, 704, 216
1199, 705, 216, 670
1200, 705, 211, 642
1201, 706, 154, 673
1202, 706, 165, 698
1203, 707, 464, 471
1204, 707, 218, 682
1205, 708, 169, 663
1206, 721, 708, 158
1207, 709, 217, 640
1208, 709, 218, 651
1209, 714, 710, 147
1210, 728, 710, 714
1211, 741, 719, 104
1212, 711, 115, 668
1213, 712, 463, 475
1214, 712, 108, 680
1215, 713, 638, 105
1216, 713, 105, 666
1217, 728, 714, 146
1218, 714, 147, 637
1219, 715, 216, 705
1220, 715, 215, 645
1221, 736, 734, 146
1222, 716, 133, 655
1223, 717, 160, 652
1224, 717, 161, 150
1225, 723, 718, 104
1226, 718, 111, 685
1227, 719, 103, 521
1228, 719, 115, 711
1229, 740, 146, 727
1230, 720, 133, 716
1231, 721, 158, 710
1232, 721, 157, 701
1233, 737, 731, 722
1234, 722, 155, 698
1235, 723, 695, 111
1236, 723, 104, 638
1237, 724, 108, 475
1238, 724, 465, 202
1239, 725, 218, 471
1240, 725, 467, 213
1241, 726, 168, 701
1242, 738, 726, 157
1243, 727, 702, 134
1244, 740, 727, 134
1245, 734, 728, 146
1246, 728, 157, 721
1247, 744, 729, 156
1248, 729, 145, 636
1249, 747, 735, 179
1250, 730, 167, 697
1251, 731, 155, 722
1252, 731, 156, 729
1253, 732, 577, 140
1254, 732, 543, 141
1255, 733, 545, 210
1256, 733, 542, 578
1257, 740, 736, 146
1258, 744, 734, 736
1259, 747, 746, 735
1260, 735, 167, 730
1261, 736, 720, 145
1262, 744, 736, 145
1263, 745, 737, 167
1264, 737, 156, 731
1265, 738, 157, 734
1266, 745, 738, 156
1267, 745, 726, 738
1268, 739, 167, 735
1269, 742, 740, 134
1270, 740, 720, 736
1271, 741, 103, 719
1272, 741, 104, 718
1273, 742, 134, 119
1274, 742, 133, 720
1275, 743, 115, 719
1276, 743, 114, 433
1277, 744, 145, 729
1278, 744, 156, 738
1279, 745, 156, 737
1280, 745, 167, 739
1281, 746, 180, 686
1282, 746, 168, 739
1283, 747, 179, 374
1284, 747, 180, 746
*Nset, nset=_PickedSet2, internal, generate
   1,  747,    1
*Elset, elset=_PickedSet2, internal, generate
    1,  1284,     1
** Section: Section-1
*Solid Section, elset=_PickedSet2, material=Material-1
1.,
*End Part
**  
**
** ASSEMBLY
**
*Assembly, name=Assembly
**  
*Instance, name=plate-1, part=plate
*End Instance
**  
*Nset, nset=LeftEdgeSet, instance=plate-1
  59,  60,  61,  62,  63,  64,  65, 285, 286, 287, 288, 289
*Elset, elset=LeftEdgeSet, instance=plate-1
 107, 346, 348, 410, 412, 413, 415, 710, 712, 726, 733
*Elset, elset=_LoadSurface_S2, internal, instance=plate-1
 243, 246, 447, 449, 450, 708, 714, 720, 722, 741
*Elset, elset=_LoadSurface_S1, internal, instance=plate-1
 452,
*Surface, type=ELEMENT, name=LoadSurface
_LoadSurface_S2, S2
_LoadSurface_S1, S1
*End Assembly
** 
** MATERIALS
** 
*Material, name=Material-1
*Elastic
 2.9e+07, 0.3
** 
** BOUNDARY CONDITIONS
** 
** Name: BC-LeftEdge Type: Displacement/Rotation
*Boundary
LeftEdgeSet, 1, 1
LeftEdgeSet, 2, 2
** ----------------------------------------------------------------
** 
** STEP: Step-1
** 
*Step, name=Step-1, nlgeom=NO
*Static
1., 1., 1e-05, 1.
** 
** LOADS
** 
** Name: Load-1   Type: Pressure
*Dsload
LoadSurface, P, -8499.
** 
** OUTPUT REQUESTS
** 
*Restart, write, frequency=0
** 
** FIELD OUTPUT: F-Output-1
** 
*Output, field, variable=PRESELECT
** 
** HISTORY OUTPUT: H-Output-1
** 
*Output, history, variable=PRESELECT
*End Step
