*Heading
** Job name: plate_offset1__1000 Model name: PlateModel
** Generated by: Abaqus/CAE 2022
*Preprint, echo=NO, model=NO, history=NO, contact=NO
**
** PARTS
**
*Part, name=plate
*Node
      1,   4.60387564,   1.73553491
      2,   3.49395919,   3.12732601
      3,   1.89008379,   3.89971161
      4, -0.735534966,    3.6038754
      5,  -2.12732601,   2.49395919
      6,  -2.89971161,   0.89008373
      7,  -2.89971161,  -0.89008373
      8,  -2.12732601,  -2.49395919
      9, -0.735534966,   -3.6038754
     10,   1.89008379,  -3.89971161
     11,   3.49395919,  -3.12732601
     12,   4.60387564,  -1.73553491
     13,           5.,           0.
     14,   28.2089558,           5.
     15,   26.4179096,           5.
     16,   24.6268654,           5.
     17,   22.8358212,           5.
     18,   21.0447769,           5.
     19,   18.3582096,           5.
     20,   16.5671635,           5.
     21,   14.7761192,           5.
     22,    12.985075,           5.
     23,   11.1940298,           5.
     24,   9.40298462,           5.
     25,   7.61194038,           5.
     26,   5.82089567,           5.
     27,   4.02985096,           5.
     28,   2.23880601,           5.
     29,  0.447761208,           5.
     30,  -2.23880601,           5.
     31,  -4.02985096,           5.
     32,  -5.82089567,           5.
     33,  -7.61194038,           5.
     34,  -9.40298462,           5.
     35,  -11.1940298,           5.
     36,   -12.985075,           5.
     37,  -14.7761192,           5.
     38,  -16.5671635,           5.
     39,  -18.3582096,           5.
     40,  -21.0447769,           5.
     41,  -22.8358212,           5.
     42,  -24.6268654,           5.
     43,  -26.4179096,           5.
     44,  -28.2089558,           5.
     45,          30.,           5.
     46,         -30.,           5.
     47,         -30.,   3.18181825
     48,         -30.,   1.36363637
     49,         -30., -0.454545468
     50,         -30.,  -1.36363637
     51,         -30.,  -3.18181825
     52,         -30.,          -5.
     53,  -28.2089558,          -5.
     54,  -26.4179096,          -5.
     55,  -24.6268654,          -5.
     56,  -22.8358212,          -5.
     57,  -21.0447769,          -5.
     58,  -18.3582096,          -5.
     59,  -16.5671635,          -5.
     60,  -14.7761192,          -5.
     61,   -12.985075,          -5.
     62,  -11.1940298,          -5.
     63,  -9.40298462,          -5.
     64,  -7.61194038,          -5.
     65,  -5.82089567,          -5.
     66,  -4.02985096,          -5.
     67,  -2.23880601,          -5.
     68, -0.447761208,          -5.
     69,   2.23880601,          -5.
     70,   4.02985096,          -5.
     71,   5.82089567,          -5.
     72,   7.61194038,          -5.
     73,   9.40298462,          -5.
     74,   11.1940298,          -5.
     75,    12.985075,          -5.
     76,   14.7761192,          -5.
     77,   16.5671635,          -5.
     78,   18.3582096,          -5.
     79,   21.0447769,          -5.
     80,   22.8358212,          -5.
     81,   24.6268654,          -5.
     82,   26.4179096,          -5.
     83,   28.2089558,          -5.
     84,          30.,          -5.
     85,          30.,  -3.18181825
     86,          30.,  -1.36363637
     87,          30.,  0.454545468
     88,          30.,   1.36363637
     89,          30.,   3.18181825
     90,   5.64763641,  -1.64810276
     91,   7.38295269,  -1.67425239
     92,   9.36032772,  -1.71816802
     93,   11.2126312,  -1.68292725
     94,    13.093914,  -1.65516305
     95,   15.0005445,  -1.69361138
     96,   17.0840359,  -1.67217374
     97,   18.7686749,  -1.72040379
     98,   20.6097355,  -1.72220421
     99,   22.5480556,  -1.55523717
    100,   24.3993301,  -1.70694494
    101,   26.2938843,  -1.74106431
    102,   28.2773933,  -1.57098556
    103,   28.0696259, -0.0386271589
    104,   26.2671108, -0.0680876896
    105,    24.417675, -0.0640166476
    106,    22.528677,  0.120814279
    107,   20.7379513,  0.212915525
    108,   18.7981224, 0.0135908788
    109,   16.8228397, 0.0200396143
    110,   14.9947433, 0.0394583046
    111,   13.1047106, 0.0875395387
    112,   11.2193279, 0.0612937547
    113,   9.37088203, 0.0281950962
    114,   7.47745419, 0.0465583801
    115,   5.62011909,  -3.41544628
    116,   7.53587532,  -3.40987754
    117,    9.3845787,  -3.40142488
    118,   11.2074165,  -3.38569999
    119,   13.0437946,   -3.3758347
    120,   14.9025831,  -3.39380455
    121,   16.7681713,  -3.44765186
    122,   18.6742134,  -3.51802373
    123,   20.6455231,  -3.42514467
    124,   22.6973286,  -3.41210008
    125,   24.4876595,  -3.40394068
    126,   26.3619156,  -3.39121556
    127,   28.3834209,  -3.26179624
    128,  -3.85494208,  -3.47742105
    129,  -5.71199322,  -3.40288806
    130,  -7.57554245,  -3.39354324
    131,  -9.39765739,  -3.40417123
    132,  -11.2135954,  -3.41010475
    133,  -13.0394936,  -3.41851664
    134,  -14.8866434,  -3.41613007
    135,  -16.7515144,  -3.45899248
    136,  -18.5533791,  -3.33646798
    137,  -20.5567837,  -3.34771562
    138,  -22.5509815,  -3.51270461
    139,  -24.4857521,  -3.43636608
    140,  -26.3686428,  -3.36820149
    141,   -28.395401,  -3.24674606
    142,   -3.6978147,  -1.67961395
    143,  -5.51043272,  -1.64876699
    144,  -7.55086803,  -1.69653952
    145,  -9.39764977,   -1.7404865
    146,   -11.226059,  -1.76811278
    147,  -13.0792818,  -1.78310978
    148,  -14.9491844,  -1.74970949
    149,  -16.8521519,  -1.72034812
    150,  -18.6535454,  -1.58927083
    151,  -20.5777149,  -1.67347383
    152,   -22.476162,  -1.70584559
    153,  -24.1829319,  -1.63197994
    154,   -26.297678,  -1.64655864
    155,   -28.299078,  -1.52073967
    156,   -3.8067162,  0.220044196
    157,  -5.51238012, 0.0670948774
    158,  -7.53438997, 0.0456211008
    159,  -9.38057804, -0.00213253684
    160,  -11.2198725, -0.0567469522
    161,  -13.1046963, -0.0873100981
    162,  -14.9947433, -0.0394573286
    163,  -16.8228397, -0.0200396124
    164,  -18.7981224, -0.0135908788
    165,  -20.7379513, -0.212915525
    166,   -22.528677, -0.120814294
    167,   -24.417675, 0.0640161559
    168,  -26.2671223, 0.0681172609
    169,  -28.0696449, 0.0389045104
    170,  -3.70495176,    1.7506882
    171,  -5.48137426,   1.73973358
    172,  -7.52405882,   1.76585746
    173,   -9.3697319,   1.73752558
    174,  -11.2130108,   1.68584538
    175,   -13.093915,    1.6553669
    176,  -15.0005436,   1.69361424
    177,  -17.0840359,   1.67217374
    178,  -18.7686749,   1.72040379
    179,  -20.6097355,   1.72220421
    180,  -22.5480556,   1.55523717
    181,  -24.3993301,   1.70694494
    182,  -26.2938843,   1.74106538
    183,  -28.2774086,    1.5710814
    184,  -3.84678793,   3.49329472
    185,  -5.69519234,   3.43475318
    186,  -7.56404305,    3.4156127
    187,  -9.38759899,   3.40273023
    188,  -11.2074614,   3.38583732
    189,  -13.0437937,   3.37584686
    190,  -14.9025831,   3.39380479
    191,  -16.7681713,   3.44765186
    192,  -18.6742134,   3.51802373
    193,  -20.6455231,   3.42514467
    194,  -22.6973286,   3.41210008
    195,  -24.4876595,   3.40394068
    196,  -26.3619156,   3.39121556
    197,  -28.3834209,   3.26179934
    198,   5.62667799,   3.41285038
    199,    7.5462141,   3.40954328
    200,   9.39394283,   3.40583611
    201,    11.213521,   3.41016197
    202,   13.0394936,   3.41851759
    203,   14.8866434,   3.41613007
    204,   16.7515144,   3.45899248
    205,   18.5533791,   3.33646798
    206,   20.5567837,   3.34771562
    207,   22.5509815,   3.51270461
    208,   24.4857521,   3.43636537
    209,   26.3686504,   3.36815453
    210,   28.3958092,   3.24644208
    211,   5.68801308,   1.62707341
    212,    7.4259181,   1.69303465
    213,   9.38678169,   1.75034821
    214,   11.2257071,   1.76949143
    215,   13.0792866,   1.78313875
    216,   14.9491844,   1.74970961
    217,   16.8521519,   1.72034812
    218,   18.6535454,   1.58927083
    219,   20.5777149,   1.67347383
    220,    22.476162,   1.70584559
    221,     24.18293,   1.63197839
    222,   26.2976799,   1.64652562
    223,   28.3003902,   1.52071619
    224,   4.89971161,   0.89008373
    225,   4.12732601,   2.49395919
    226,   2.73553491,    3.6038754
    227,           1.,           4.
    228,  0.109916262,   3.89971161
    229,  -1.49395919,   3.12732601
    230,   -2.6038754,   1.73553491
    231,          -3.,           0.
    232,   -2.6038754,  -1.73553491
    233,  -1.49395919,  -3.12732601
    234,  0.109916262,  -3.89971161
    235,           1.,          -4.
    236,   2.73553491,   -3.6038754
    237,   4.12732601,  -2.49395919
    238,   4.89971161,  -0.89008373
    239,   29.1044769,           5.
    240,   27.3134327,           5.
    241,   25.5223885,           5.
    242,   23.7313442,           5.
    243,   21.9402981,           5.
    244,   20.1492538,           5.
    245,   19.2537308,           5.
    246,   17.4626865,           5.
    247,   15.6716413,           5.
    248,   13.8805971,           5.
    249,   12.0895519,           5.
    250,   10.2985077,           5.
    251,    8.5074625,           5.
    252,   6.71641779,           5.
    253,   4.92537308,           5.
    254,   3.13432837,           5.
    255,   1.34328353,           5.
    256, -0.447761208,           5.
    257,  -1.34328353,           5.
    258,  -3.13432837,           5.
    259,  -4.92537308,           5.
    260,  -6.71641779,           5.
    261,   -8.5074625,           5.
    262,  -10.2985077,           5.
    263,  -12.0895519,           5.
    264,  -13.8805971,           5.
    265,  -15.6716413,           5.
    266,  -17.4626865,           5.
    267,  -19.2537308,           5.
    268,  -20.1492538,           5.
    269,  -21.9402981,           5.
    270,  -23.7313442,           5.
    271,  -25.5223885,           5.
    272,  -27.3134327,           5.
    273,  -29.1044769,           5.
    274,         -30.,     4.090909
    275,         -30.,   2.27272725
    276,         -30.,  0.454545468
    277,         -30.,  -2.27272725
    278,         -30.,    -4.090909
    279,  -29.1044769,          -5.
    280,  -27.3134327,          -5.
    281,  -25.5223885,          -5.
    282,  -23.7313442,          -5.
    283,  -21.9402981,          -5.
    284,  -20.1492538,          -5.
    285,  -19.2537308,          -5.
    286,  -17.4626865,          -5.
    287,  -15.6716413,          -5.
    288,  -13.8805971,          -5.
    289,  -12.0895519,          -5.
    290,  -10.2985077,          -5.
    291,   -8.5074625,          -5.
    292,  -6.71641779,          -5.
    293,  -4.92537308,          -5.
    294,  -3.13432837,          -5.
    295,  -1.34328353,          -5.
    296,  0.447761208,          -5.
    297,   1.34328353,          -5.
    298,   3.13432837,          -5.
    299,   4.92537308,          -5.
    300,   6.71641779,          -5.
    301,    8.5074625,          -5.
    302,   10.2985077,          -5.
    303,   12.0895519,          -5.
    304,   13.8805971,          -5.
    305,   15.6716413,          -5.
    306,   17.4626865,          -5.
    307,   19.2537308,          -5.
    308,   20.1492538,          -5.
    309,   21.9402981,          -5.
    310,   23.7313442,          -5.
    311,   25.5223885,          -5.
    312,   27.3134327,          -5.
    313,   29.1044769,          -5.
    314,          30.,    -4.090909
    315,          30.,  -2.27272725
    316,          30., -0.454545468
    317,          30.,   2.27272725
    318,          30.,     4.090909
    319,   20.5844612,   4.29918957
    320,  -20.5844612,  -4.29918957
    321,   28.7982998,   4.16608238
    322,    26.861042,   4.18049097
    323,   25.0180244,    4.2171073
    324,   23.2008839,   4.27217579
    325,   19.6352177,   4.06036758
    326,   17.0868282,   4.25366831
    327,  -28.7982311,  -4.16621828
    328,  -26.8610401,  -4.18054533
    329,  -25.0180244,  -4.21710777
    330,  -23.2008839,  -4.27217579
    331,  -19.6352177,  -4.06036758
    332,  -17.0868282,  -4.25366831
    333,   16.2006645,   4.22620916
    334,  -16.2006645,  -4.22620916
    335,   15.2906475,   4.21462679
    336,  -15.2906475,  -4.21462679
    337,  -2.67011356,   4.22111368
    338,   3.58210015,   4.12632704
    339,   8.03089905,  -4.20678377
    340,   9.84662914,    -4.203722
    341,   11.6539469,  -4.19848204
    342,   12.5600662,   4.21156311
    343,   10.7524347,   4.20723867
    344,  -1.66465902,  -4.09014511
    345,  -4.39670277,   4.23737717
    346,  -5.30692577,  -4.21375036
    347,  -3.52972889,  -4.25371075
    348,    28.795681,  -4.16965437
    349,   27.8171177,   4.15467596
    350,   26.8567352,  -4.18875217
    351,   25.9368267,   4.19631386
    352,   25.0197964,  -4.21019411
    353,   24.1056004,   4.23714018
    354,   23.2109451,  -4.21017504
    355,   22.4114227,   4.37346029
    356,   21.3750668,  -4.21969891
    357,   18.7946548,  -4.37647629
    358,   17.9646835,   4.25059271
    359,   17.1166592,  -4.24121046
    360,   15.2972136,  -4.20867825
    361,   14.3763418,   4.21253157
    362,   13.4694471,  -4.19818163
    363,   8.94493961,   4.20676374
    364,   7.11628103,    4.2069602
    365,   5.25327635,    4.2414999
    366,  -6.21899223,    4.2170248
    367,   -7.1377039,  -4.20295763
    368,  -8.04138947,   4.20976353
    369,  -8.94831562,  -4.20581102
    370,  -9.84726429,   4.20397568
    371,  -10.7524471,  -4.20722914
    372,  -11.6539545,   4.19850492
    373,  -12.5600662,  -4.21156311
    374,  -13.4694471,   4.19818354
    375,  -14.3763418,  -4.21253157
    376,  -15.2972136,   4.20867825
    377,  -17.1166592,   4.24121046
    378,  -17.9646835,  -4.25059271
    379,  -18.7946548,   4.37647629
    380,  -21.3750668,   4.21969891
    381,  -22.4114227,  -4.37346029
    382,  -23.2109451,   4.21017504
    383,  -24.1056004,  -4.23714018
    384,  -25.0197964,   4.21019411
    385,  -25.9368267,  -4.19633102
    386,  -26.8567352,   4.18875217
    387,  -27.8170357,  -4.15478706
    388,   -28.795681,   4.16965532
    389,   6.18535948,  -4.21217632
    390,   4.45921946,  -4.36714649
    391,   21.5256443,   4.07319641
    392,   18.7530441,   4.32948589
    393,   13.4664373,   4.21137714
    394,   11.6554308,   4.20803499
    395,   9.84923363,   4.20510292
    396,   8.03450966,   4.20615196
    397,   6.19013786,    4.2124052
    398,   4.46043301,   4.36707592
    399, -0.815963507,   4.31869698
    400,  -1.66536665,   4.09216022
    401,  -3.52963591,   4.26020908
    402,  -5.30179024,   4.22404718
    403,  -7.13289833,   4.21164608
    404,  -8.94495678,   4.20521593
    405,  -10.7498531,   4.19844818
    406,  -12.5603914,   4.19335032
    407,  -14.3821993,   4.19810963
    408,  -16.2102737,   4.21941948
    409,  -18.0138569,   4.27267265
    410,  -19.6755066,   4.09304333
    411,  -20.5780258,   4.34757757
    412,  -22.3003101,   4.20053768
    413,  -24.1108341,   4.20972872
    414,  -25.9355793,   4.20165586
    415,  -27.8112774,   4.16277313
    416,  -21.5256443,  -4.07319641
    417,  -18.7530441,  -4.32948589
    418,  -13.4664373,  -4.21137714
    419,  -11.6554451,  -4.20802402
    420,  -9.85041714,  -4.20466518
    421,  -8.04500484,  -4.20198441
    422,  -6.22472334,   -4.2027545
    423,  -4.40223455,  -4.22980785
    424,  -2.67155123,  -4.21920776
    425,  -0.81626451,  -4.31874657
    426,   3.58319092,  -4.12801886
    427,   5.25413036,  -4.24447298
    428,   7.11271811,  -4.20670223
    429,   8.94117546,  -4.20409441
    430,   10.7497387,  -4.19837904
    431,   12.5603905,  -4.19334412
    432,   14.3821993,  -4.19810915
    433,   16.2102737,  -4.21941948
    434,   18.0138569,  -4.27267265
    435,   19.6755066,  -4.09304333
    436,   20.5780258,  -4.34757757
    437,   22.3003101,  -4.20053768
    438,   24.1108341,  -4.20972872
    439,   25.9355793,  -4.20165586
    440,   27.8112774,  -4.16277218
    441,   4.52116299,   3.47478247
    442,  -3.13787961,  -2.71400356
    443,   5.10051823,  -2.56165981
    444,   5.11284304,   2.55754852
    445,    2.7163887,  -4.32632113
    446,   5.91220474,  0.469932914
    447,  -3.13328147,   2.73443294
    448,     -2.36622,  -3.37449145
    449,  -2.36501312,    3.3797431
    450,   4.51978064,  -3.47686148
    451,   5.77011299, -0.589827418
    452,   29.2850342,   3.48509312
    453,  -29.2847137,  -3.48530197
    454,   29.1570148, -0.999430895
    455,   29.2328529,  -2.74994159
    456,  -29.1570187,  0.999577641
    457,  -29.2328568,   2.74995112
    458,   29.2126884,   1.87277043
    459,  -29.1651535, -0.970486045
    460,   29.1671581,  0.970498681
    461,  -29.2110767,  -1.87325203
    462,  -29.2823925,   3.49082661
    463,  -29.2028694,    1.8924017
    464,  -29.0391846, 0.0187135972
    465,  -29.2439137,  -2.73849154
    466,   29.2823906,  -3.49082398
    467,   29.2028656,  -1.89235723
    468,   29.0394745, -0.0185631495
    469,   29.2445564,   2.73824453
    470,   2.71617055,   4.32598257
    471,    27.337656,   3.31687927
    472,   23.5646133,   3.49844098
    473,   -27.337532,  -3.31702423
    474,  -23.5646133,  -3.49844098
    475,   17.5629845,   3.59253383
    476,  -17.5629845,  -3.59253383
    477,   25.4220295,   3.38692546
    478,  -25.4220276,  -3.38693953
    479,  -17.6740704,   3.50708437
    480,   17.6740704,  -3.50708437
    481,  -3.10896635,   3.61775875
    482,  -3.11206436,  -3.60776687
    483,  -23.5758591,   3.42912436
    484,   23.5758591,  -3.42912436
    485,   15.8151894,   3.41962481
    486,  -15.8151894,  -3.41962481
    487,   15.8392506,  -3.40751767
    488,  -15.8392506,   3.40751767
    489,  -4.76225042,   3.45623779
    490,  -4.77995539,   -3.4275279
    491,  -25.4263725,   3.39774156
    492,   25.4263725,  -3.39774132
    493,   13.9589987,   3.41358614
    494,  -13.9589987,   -3.4135859
    495,   13.9724016,  -3.37267852
    496,  -13.9724007,   3.37268257
    497,  -6.63105631,      3.41801
    498,   6.59550858,  -3.41175294
    499,   6.60618258,   3.41096139
    500,  -6.64687538,  -3.38429594
    501,  -27.3243084,   3.34081078
    502,   27.3243084,  -3.34080887
    503,   12.1257353,   3.41114783
    504,  -12.1257486,  -3.41112971
    505,   12.1240683,  -3.37052774
    506,  -12.1240749,   3.37059927
    507,   8.46200466,  -3.40122843
    508,  -8.47692204,   3.40563846
    509,   8.47395325,   3.40124154
    510,  -8.49021912,  -3.39413023
    511,   6.08877182,  -2.60229158
    512,   10.3042564,   3.40368032
    513,  -10.3056192,  -3.40299702
    514,   10.2937489,  -3.38789582
    515,  -10.2947149,   3.38874722
    516,   6.52897596,  -1.15868366
    517,   6.61168575,   1.17894351
    518,   6.10996008,   2.59724712
    519,  -28.5840969,  -2.36482191
    520,   28.5849342,   2.36455798
    521,  -28.5676956,   2.39177299
    522,   28.5676899,   -2.3917408
    523,  -4.21917772,  -2.64280581
    524,  -4.20149279,   2.68721342
    525,   -3.9269619,  0.928820789
    526,   17.4536247,   2.66873026
    527,  -17.4536247,  -2.66873026
    528,   17.3506298,  -2.69674563
    529,  -17.3506298,   2.69674563
    530,  -23.8487301,   2.52869725
    531,   23.8487301,  -2.52869725
    532,  -23.9065685,  -2.67512584
    533,   23.9065685,   2.67512488
    534,   15.3925152,   2.58600116
    535,  -15.3925152,  -2.58600116
    536,  -15.4390221,   2.56145954
    537,   15.4390221,  -2.56145883
    538,   -5.1435194,   2.65960932
    539,  -5.16942024,  -2.60461402
    540,   -27.761694,   2.46986818
    541,   27.7616901,  -2.46984482
    542,  -27.7820034,  -2.42836905
    543,   27.7824574,   2.42821264
    544,  -25.8557968,   2.57202768
    545,   25.8557968,  -2.57202721
    546,  -25.8469353,  -2.52106047
    547,   25.8469429,   2.52102804
    548,  -4.60500956,   1.30620778
    549,   13.5240049,   2.60260677
    550,   -13.524004,  -2.60260081
    551,   13.5421495,  -2.52330685
    552,  -13.5421495,   2.52335739
    553,  -7.06464767,   2.59886909
    554,   7.01837254,  -2.60747743
    555,  -7.08800173,  -2.54523993
    556,   7.04285955,   2.60817099
    557,  -4.62329674,  0.516494632
    558,   11.6803751,   2.59808683
    559,  -11.6805229,    -2.597785
    560,     11.67379,   -2.5314486
    561,  -11.6739092,   2.53218937
    562,   8.90371799,  -2.56920052
    563,  -8.91975975,   2.58273697
    564,  -8.94325542,   -2.5719943
    565,   8.92530823,   2.58043385
    566,   9.84771442,   2.58418322
    567,  -9.85364819,  -2.58024263
    568,    9.8278532,   -2.5585475
    569,  -9.83294392,   2.56567359
    570,   6.61446047, -0.261390775
    571,   6.77856493,   0.45987761
    572,   10.7491932,  -2.54347897
    573,   -10.750432,   2.54661894
    574,  -10.7653227,  -2.58709192
    575,   10.7638006,   2.58859944
    576,  -4.64053106,  -1.95089388
    577,   7.97819471,   2.57275915
    578,  -8.02281952,  -2.55512762
    579,   7.95371628,  -2.56452298
    580,  -7.99984074,   2.58911037
    581,   12.6044512,  -2.51986265
    582,  -12.6044731,    2.5201447
    583,    12.599741,   2.60014939
    584,  -12.5997658,  -2.60008335
    585,    26.816206,    2.4824307
    586,  -26.8161087,   -2.4825182
    587,   26.8040581,  -2.53533435
    588,  -26.8040581,   2.53533983
    589,  -6.11935663,  -2.54395008
    590,  -6.09642839,   2.60427904
    591,   14.4840031,  -2.53506756
    592,  -14.4840031,   2.53507972
    593,  -14.4527912,  -2.59187627
    594,   14.4527912,   2.59187722
    595,   24.8592796,   2.55130124
    596,  -24.8592796,  -2.55131078
    597,   24.8962193,  -2.56209683
    598,  -24.8962193,   2.56209707
    599,  -25.3569412,    1.7366116
    600,   25.3569412,  -1.73661149
    601,   14.0139427,   1.76492071
    602,  -14.0139418,  -1.76491404
    603,  -6.55162573,   1.75786614
    604,   12.1491776,   1.77348578
    605,  -12.1492472,  -1.77305639
    606,   8.41312885,  -1.70203352
    607,  -8.45381832,   1.74652624
    608,   10.3044634,   1.75311267
    609,  -10.3082485,  -1.74753654
    610,  -27.2510586,   1.67582393
    611,   27.2510509,  -1.67578268
    612,   16.3582821,   2.59615827
    613,  -16.3582821,  -2.59615827
    614,   16.4113789,  -2.58603954
    615,  -18.1132011,   2.86681819
    616,   18.1132011,  -2.86681819
    617,  -16.4113789,   2.58603978
    618,   23.1297989,   2.85400152
    619,  -23.1297989,  -2.85400152
    620,   -27.267168,   -1.5993017
    621,   27.2674541,   1.59930491
    622,  -4.62726927,   2.02869058
    623,  -4.60083914, -0.300048828
    624,   7.19651222, -0.776644826
    625,   7.26221228,  0.853056967
    626,  -18.0430279,   2.08569431
    627,   18.0430279,  -2.08569431
    628,   7.96945715, -0.821561396
    629,   7.99878168,  0.876491606
    630,   23.2066212,   2.06915355
    631,  -23.2066212,  -2.06915402
    632,  -18.8115559,   2.52154708
    633,   18.8115559,  -2.52154708
    634,   22.4234943,   2.50647569
    635,  -22.4234943,  -2.50647593
    636,   26.7422447,  -0.88340503
    637,    -26.74226,  0.883462846
    638,  -15.9756222,     1.699669
    639,   15.9756222,  -1.69966841
    640,  -27.6684036, -0.738664746
    641,   27.6686687,  0.738795877
    642,  -25.8137398,  0.903134465
    643,    25.813736, -0.903119862
    644,   13.5660076,  0.930193245
    645,  -13.5660009, -0.930127561
    646,  -7.04582453,  0.909219801
    647,   9.83874702,  0.896376371
    648,  -9.84532452, -0.882731318
    649,   11.6883116,  0.926883101
    650,  -11.6885405, -0.924928248
    651,   8.89716721, -0.838864326
    652,   -8.9164505,  0.879141748
    653,  -7.99089146,  0.894040346
    654,  -10.7628555, -0.900519073
    655,   10.7606468,  0.907094002
    656,   12.6237621,  0.932101548
    657,  -12.6237955, -0.931529582
    658,  -6.07300568,  0.906505406
    659,   -14.504364, -0.907172918
    660,   14.5043659,  0.907185912
    661,   24.8763351, -0.889095008
    662,  -24.8763351,  0.889097214
    663,  -26.7477036, -0.773618758
    664,   26.7477856,  0.773666203
    665,   6.57568741,   1.94089389
    666,  -27.6595135,  0.820487201
    667,   27.6594906, -0.820338488
    668,  -4.58440828,  -1.16743028
    669,   15.8909645,   1.72906327
    670,  -15.8909645,  -1.72906327
    671,  -5.25901318,  0.907207251
    672,    10.286087,  -1.69553387
    673,  -10.2896414,   1.70524526
    674,  -8.47834396,  -1.71188283
    675,   8.43997002,   1.72793841
    676,  -25.3374615,  0.063556008
    677,   25.3374577, -0.0635486543
    678,   14.0498276, 0.0648923814
    679,  -14.0498238, -0.0648349822
    680,  -6.56027269, 0.0531083643
    681,   12.1583042, 0.0728378594
    682,  -12.1584539, -0.0712167025
    683,   -8.4629631, 0.0182536189
    684,   10.2926874,  0.037146233
    685,  -10.2967272, -0.024386894
    686,   -19.631916,   1.93877029
    687,    19.631916,  -1.93877029
    688,  -18.1243572,   1.02934504
    689,   18.1243572,  -1.02934504
    690,   21.5889511,   1.90033066
    691,  -21.5889511,  -1.90033066
    692,   23.1349945,   1.03079116
    693,  -23.1349945,  -1.03079152
    694,  -19.6293087,   2.99951077
    695,   19.6293087,  -2.99951077
    696,   21.5893097,    2.9686377
    697,  -21.5893097,   -2.9686377
    698,   8.91375256,  0.884492576
    699,  -8.93043995, -0.859176755
    700,  -9.83314228,  0.854219973
    701,   9.82530212, -0.835013807
    702,   -16.421196,  0.816524386
    703,    16.421196, -0.816524267
    704,  -16.3659134, -0.864770412
    705,   16.3659134,  0.864770472
    706,  -15.4377918, -0.883471131
    707,   15.4377918,  0.883473516
    708,   23.9369698, -0.833002627
    709,  -23.9369698,  0.833002925
    710,  -25.8014164, -0.784090698
    711,   25.8014278,   0.78409785
    712,  -28.4405537,  0.689752877
    713,   28.4405994, -0.689589024
    714,   10.7531958, -0.818140745
    715,  -10.7559395,  0.826653898
    716,  -8.00646877, -0.835684955
    717,   -15.476059,  0.826914251
    718,    15.476059, -0.826913357
    719,   27.1924877, -0.0496660508
    720,  -27.1924419, 0.0497813858
    721,   15.9197578,  0.027384039
    722,  -15.9197569, -0.0273833089
    723,   23.5024891, 0.0277544539
    724,  -23.5024891, -0.0277546123
    725,   19.2132664, -0.990383685
    726,  -19.2132664,  0.990383685
    727,  -22.0640812, -0.980270743
    728,   22.0640812,  0.980270684
    729,    8.4379158, 0.0292186551
    730,  -17.2362862,  0.702735245
    731,  -17.2896118, -0.843998671
    732,   17.2896118,  0.843998671
    733,   17.2362862, -0.702735245
    734,   23.4581223,  -1.59399605
    735,  -23.4581223,   1.59399617
    736,  -25.3058853,  -1.64910805
    737,   25.3058891,   1.64909625
    738,     11.68717,  -0.80113548
    739,   -11.687809,  0.804251909
    740,  -28.4482937, -0.634454489
    741,   28.4490623,  0.634564102
    742,  -7.05927372, -0.818466008
    743,  -14.5258265,  0.809177637
    744,   14.5258274, -0.809158921
    745,   13.5753622, -0.792402625
    746,  -13.5753593,  0.792571187
    747,   12.6280746, -0.791869879
    748,  -12.6282053,  0.792861819
    749,  -6.08602715, -0.800572395
    750,   24.8432999,  0.768130898
    751,   -24.843298, -0.768130839
    752,   20.8748913,   2.46050334
    753,  -20.8748913,  -2.46050334
    754,  -20.3393574,   2.51507139
    755,   20.3393574,  -2.51507139
    756,   21.1931019,  -2.51630306
    757,  -21.1931019,   2.51630306
    758,  -20.0510082,  -2.40616584
    759,   20.0510082,   2.40616584
    760,  -17.7431393, 0.00529732602
    761,   17.7431393, -0.00529732089
    762,  -6.56899309,  -1.67558908
    763,   24.0162773,   0.67892766
    764,  -24.0162773, -0.678928137
    765,  -20.0513325,   1.10102105
    766,   20.0513325,  -1.10102105
    767,   21.1230049,  0.952622712
    768,  -21.1230049, -0.952622712
    769,  -17.7917099,   -1.6607182
    770,   17.7917099,    1.6607182
    771,   14.0369663,  -1.66811836
    772,  -14.0369663,   1.66819453
    773,   12.1500053,  -1.66373456
    774,  -12.1502199,   1.66510999
    775,   6.53334188,  -1.93816149
    776,   23.0821304,  -2.80468321
    777,  -23.0821304,   2.80468321
    778,  -19.9156265,  0.166104138
    779,   19.9156265, -0.166104138
    780,  -23.0384655,   2.19105005
    781,   23.0384655,  -2.19105005
    782,  -20.9161606,  0.705969036
    783,   20.9161606, -0.705969036
    784,   21.5608368,  0.140421674
    785,  -21.5608368, -0.140421689
    786,   20.2360096,  0.791112423
    787,  -20.2360096, -0.791112423
    788,   22.2668266,  -2.49173355
    789,  -22.2668266,   2.49173355
    790,   -21.588171,   1.61826181
    791,    21.588171,  -1.61826181
    792,   19.5808372,   1.47503757
    793,  -19.5808372,  -1.47503757
    794,  -18.2019691, -0.833072901
    795,   18.2019691,  0.833072901
    796,  -19.4932556, -0.601958573
    797,   19.4932556,  0.601958573
    798,   22.0206833, -0.729578257
    799,  -22.0206833,  0.729578257
    800,   19.1241684,   2.37264514
    801,  -19.1241684,  -2.37264514
    802,  -18.3152866,  -2.32556653
    803,   18.3152866,   2.32556653
    804,   22.9991665, -0.760540903
    805,  -22.9991665,  0.760540903
    806,   21.7463589,  -3.37758636
    807,  -21.7463589,   3.37758636
    808,  -5.25881767, -0.769944727
    809,   19.5841122,   3.10467243
    810,  -19.5841122,  -3.10467243
    811,  -3.76491499, -0.636188745
    812,  -18.9455452, -0.902586162
    813,   18.9455452,  0.902586162
*Element, type=CPS3
   1, 337,  30, 258
   2, 400,   4, 399
   3, 399, 228, 256
   4, 256, 228,  29
   5, 227,   3, 255
   6, 470, 254,  28
   7, 470, 338, 254
   8, 441, 365, 398
   9, 211,   1, 224
  10, 775, 554,  91
  11, 339,  72, 301
  12, 429, 340, 117
  13, 430, 341, 118
  14, 514, 340, 430
  15, 431, 362, 119
  16, 581, 505, 119
  17, 747, 111, 681
  18, 656, 604, 649
  19, 583, 503, 558
  20, 342,  22, 249
  21, 394, 342, 249
  22, 343,  23, 250
  23, 512, 343, 395
  24, 566, 512, 200
  25, 647, 608, 213
  26, 714, 701, 672
  27, 568, 117, 514
  28, 572, 568, 514
  29, 560, 118, 505
  30, 450, 426, 390
  31, 445, 236,  10
  32, 297,  10, 235
  33, 296, 235, 234
  34, 344,   9, 233
  35, 425, 344, 295
  36, 482, 442, 128
  37, 523, 442, 142
  38, 811, 231, 156
  39, 170,   6, 230
  40, 481, 449, 337
  41, 401, 337, 258
  42, 345,  31, 259
  43, 402, 345, 259
  44, 622, 548, 170
  45, 557, 525, 548
  46, 808, 623, 157
  47, 539, 129, 490
  48, 423, 347, 128
  49, 490, 346, 423
  50, 347,  66, 294
  51, 482, 347, 424
  52, 321, 318, 239
  53, 452, 318, 321
  54, 469, 458, 317
  55, 460, 458, 223
  56, 454,  86, 316
  57, 467, 455, 315
  58, 348,  83, 313
  59, 466, 314,  85
  60, 349,  14, 240
  61, 322, 240,  15
  62, 585, 543, 471
  63, 719, 641, 664
  64, 636, 101, 611
  65, 587, 126, 502
  66, 439, 352, 311
  67, 350,  82, 312
  68, 439, 350, 126
  69, 351,  15, 241
  70, 323, 241,  16
  71, 595, 477, 208
  72, 750, 677, 711
  73, 661, 600, 643
  74, 597, 492, 545
  75, 438, 354, 310
  76, 352,  81, 311
  77, 353,  16, 242
  78, 324, 242,  17
  79, 618, 472, 207
  80, 723, 692, 106
  81, 804, 708, 723
  82, 776, 484, 531
  83, 437, 356, 309
  84, 354,  80, 310
  85, 355,  17, 243
  86, 391, 355, 243
  87, 696, 690, 634
  88, 767, 690, 219
  89, 798, 791,  99
  90, 756, 755, 123
  91, 435, 122, 357
  92, 356,  79, 309
  93, 319,  18, 244
  94, 325, 206, 319
  95, 800, 792, 759
  96, 797, 779, 786
  97, 725,  97, 687
  98, 755, 687, 695
  99, 480, 434, 122
 100, 435, 357, 307
 101, 358,  19, 246
 102, 475, 326, 204
 103, 526, 475, 204
 104, 795, 770, 732
 105, 689,  96, 627
 106, 528, 121, 480
 107, 487, 360, 433
 108, 434, 359, 306
 109, 333, 326,  20
 110, 335, 333, 247
 111, 534, 485, 203
 112, 707, 669, 216
 113, 718, 639, 703
 114, 537, 120, 487
 115, 495, 362, 432
 116, 433, 360, 305
 117, 361, 335,  21
 118, 393, 361, 248
 119, 549, 493, 202
 120, 644, 601, 215
 121, 771, 744, 745
 122, 551, 119, 495
 123, 505, 341, 431
 124, 432, 362, 304
 125, 363,  24, 251
 126, 509, 363, 396
 127, 577, 509, 199
 128, 629, 625, 114
 129, 628, 624,  91
 130, 579, 507, 562
 131, 562, 507, 117
 132, 364,  25, 252
 133, 499, 364, 397
 134, 665, 556, 518
 135, 625, 517, 571
 136, 624, 516,  91
 137, 570, 446, 451
 138, 365,  26, 253
 139, 441,   2, 225
 140, 338, 226,   2
 141, 366,  32, 260
 142, 403, 366, 260
 143, 553, 497, 186
 144, 646, 603, 172
 145, 762, 749, 742
 146, 555, 130, 500
 147, 422, 367, 292
 148, 500, 367, 422
 149, 368,  33, 261
 150, 404, 370, 187
 151, 563, 508, 187
 152, 652, 607, 173
 153, 716, 699, 674
 154, 564, 131, 510
 155, 421, 369, 291
 156, 510, 369, 421
 157, 370,  34, 262
 158, 515, 370, 405
 159, 573, 569, 515
 160, 715, 685, 700
 161, 654, 146, 609
 162, 574, 132, 513
 163, 420, 371, 290
 164, 513, 371, 420
 165, 372,  35, 263
 166, 506, 372, 406
 167, 582, 506, 189
 168, 748, 161, 682
 169, 657, 605, 650
 170, 584, 504, 559
 171, 373,  61, 289
 172, 419, 373, 289
 173, 374,  36, 264
 174, 496, 374, 407
 175, 592, 496, 190
 176, 746, 743, 679
 177, 659, 602, 645
 178, 593, 494, 550
 179, 375, 336,  60
 180, 418, 375, 288
 181, 376,  37, 265
 182, 488, 376, 408
 183, 617, 488, 191
 184, 702, 638, 177
 185, 704, 149, 670
 186, 613, 486, 535
 187, 334, 332,  59
 188, 336, 334, 287
 189, 377,  38, 266
 190, 479, 377, 409
 191, 615, 479, 192
 192, 760, 730, 688
 193, 794, 731, 760
 194, 527, 136, 476
 195, 378,  58, 286
 196, 476, 332, 135
 197, 379,  39, 267
 198, 410, 192, 379
 199, 694, 686, 632
 200, 765, 686, 179
 201, 812, 793, 150
 202, 758, 753, 137
 203, 331, 320, 284
 204, 331, 137, 320
 205, 380,  40, 269
 206, 412, 380, 269
 207, 790, 757, 789
 208, 799, 785, 782
 209, 727, 152, 691
 210, 753, 691, 697
 211, 416, 283,  57
 212, 416, 381, 283
 213, 382,  41, 270
 214, 413, 382, 270
 215, 530, 483, 195
 216, 805, 724, 166
 217, 693, 153, 631
 218, 532, 139, 474
 219, 383, 282, 330
 220, 330, 282,  56
 221, 384,  42, 271
 222, 414, 384, 271
 223, 544, 491, 196
 224, 642, 599, 182
 225, 710, 676, 168
 226, 546, 140, 478
 227, 385, 281, 329
 228, 329, 281,  55
 229, 386,  43, 272
 230, 415, 386, 272
 231, 540, 501, 197
 232, 666, 637, 610
 233, 663, 620, 154
 234, 542, 519, 141
 235, 387, 280, 328
 236, 328, 280,  54
 237, 388,  44, 273
 238, 462, 274,  47
 239, 521, 457, 463
 240, 712, 666, 183
 241, 461, 459,  50
 242, 519, 461, 465
 243, 327, 279,  53
 244, 453, 278, 327
 245, 428, 389, 300
 246, 389,  71, 300
 247, 390,  70, 299
 248, 450,  11, 426
 249, 522, 455, 467
 250, 467, 454, 102
 251, 460,  88, 458
 252, 520, 458, 469
 253, 446, 224,  13
 254, 714, 684, 701
 255, 773, 747, 738
 256, 591, 495, 120
 257, 614, 487, 121
 258, 616, 480, 122
 259, 695, 687, 633
 260, 791, 756, 788
 261, 531, 484, 125
 262, 545, 492, 126
 263, 541, 502, 127
 264, 667, 636, 611
 265, 643, 600, 101
 266, 723, 708, 105
 267, 798, 784, 783
 268, 766, 687,  98
 269, 761, 733, 689
 270, 703, 639,  96
 271, 745, 744, 678
 272, 655, 214, 608
 273, 649, 604, 214
 274, 651, 606,  92
 275, 450, 443, 237
 276, 443,  90,  12
 277, 451, 238,  90
 278, 554, 511, 498
 279, 427, 390, 299
 280, 442, 232, 142
 281, 576, 523, 142
 282, 589, 500, 129
 283, 578, 510, 130
 284, 567, 513, 131
 285, 559, 504, 132
 286, 550, 494, 133
 287, 535, 486, 134
 288, 527, 476, 135
 289, 801, 793, 758
 290, 697, 691, 635
 291, 619, 474, 138
 292, 596, 478, 139
 293, 586, 542, 473
 294, 465, 461, 277
 295, 811, 156, 623
 296, 811, 668, 142
 297, 749, 157, 680
 298, 716, 683, 699
 299, 648, 609, 145
 300, 650, 605, 146
 301, 645, 602, 147
 302, 706, 670, 148
 303, 760, 731, 163
 304, 796, 778, 787
 305, 768, 691, 151
 306, 724, 693, 166
 307, 751, 676, 710
 308, 720, 640, 663
 309, 740, 464, 459
 310, 525,   6, 170
 311, 525, 156,   6
 312, 658, 603, 646
 313, 653, 607, 652
 314, 715, 700, 673
 315, 774, 748, 739
 316, 772, 743, 746
 317, 717, 638, 702
 318, 688, 177, 626
 319, 726, 178, 686
 320, 790, 782, 179
 321, 805, 709, 724
 322, 662, 599, 642
 323, 637, 182, 610
 324, 456,  48, 276
 325, 447, 170, 230
 326, 538, 524, 489
 327, 590, 497, 553
 328, 580, 508, 563
 329, 569, 187, 515
 330, 561, 188, 506
 331, 552, 189, 496
 332, 536, 190, 488
 333, 529, 191, 479
 334, 694, 632, 192
 335, 757, 754, 193
 336, 777, 483, 530
 337, 598, 491, 544
 338, 588, 196, 501
 339, 463, 457, 275
 340, 556, 199, 499
 341, 565, 200, 509
 342, 558, 503, 201
 343, 575, 201, 512
 344, 594, 493, 549
 345, 612, 485, 534
 346, 526, 205, 475
 347, 759, 752, 206
 348, 696, 634, 207
 349, 533, 208, 472
 350, 547, 209, 477
 351, 543, 520, 210
 352, 571, 446, 570
 353, 675, 213, 565
 354, 660, 601, 644
 355, 705, 217, 669
 356, 795, 732, 761
 357, 792, 786, 219
 358, 728, 220, 690
 359, 692, 221, 630
 360, 711, 677, 104
 361, 621, 223, 543
 362, 518, 444, 211
 363, 444, 225,   1
 364, 255,   3,  28
 365, 228, 227,  29
 366, 447, 230,   5
 367, 231,   6, 156
 368, 232,   7, 142
 369, 425, 234,   9
 370, 296, 234,  68
 371, 445,  10,  69
 372, 238,  12,  90
 373, 349, 321,  14
 374, 351, 322,  15
 375, 353, 323,  16
 376, 355, 324,  17
 377, 391,  18, 319
 378, 392, 325, 245
 379, 392, 245,  19
 380, 326, 246,  20
 381, 335, 247,  21
 382, 393, 248,  22
 383, 394, 249,  23
 384, 395,  24, 363
 385, 396,  25, 364
 386, 397,  26, 365
 387, 398,  27, 338
 388, 470,  28,   3
 389, 255,  29, 227
 390, 399, 256, 257
 391, 400, 399, 257
 392, 401, 258,  31
 393, 402, 259,  32
 394, 403, 260,  33
 395, 404,  34, 370
 396, 405,  35, 372
 397, 406,  36, 374
 398, 407,  37, 376
 399, 408,  38, 377
 400, 409,  39, 379
 401, 411, 410, 268
 402, 411, 268,  40
 403, 412, 269,  41
 404, 413, 270,  42
 405, 414, 271,  43
 406, 415, 272,  44
 407, 273,  46, 274
 408, 462, 457, 197
 409, 463, 275,  48
 410, 464, 276,  49
 411, 465,  51, 453
 412, 278,  52, 279
 413, 387, 327,  53
 414, 385, 328,  54
 415, 383, 329,  55
 416, 381, 330,  56
 417, 416,  57, 320
 418, 417, 331, 285
 419, 417, 285,  58
 420, 332, 286,  59
 421, 336, 287,  60
 422, 418, 288,  61
 423, 419, 289,  62
 424, 420,  63, 369
 425, 421,  64, 367
 426, 422,  65, 346
 427, 423,  66, 347
 428, 424,  67, 344
 429, 425, 295,  68
 430, 296, 297, 235
 431, 297,  69,  10
 432, 426, 298,  70
 433, 427, 299,  71
 434, 428, 300,  72
 435, 429,  73, 340
 436, 430,  74, 341
 437, 431,  75, 362
 438, 432,  76, 360
 439, 433,  77, 359
 440, 434,  78, 357
 441, 436, 435, 308
 442, 436, 308,  79
 443, 437, 309,  80
 444, 438, 310,  81
 445, 439, 311,  82
 446, 440, 312,  83
 447, 313,  84, 314
 448, 466, 455, 127
 449, 467, 315,  86
 450, 468, 316,  87
 451, 469,  89, 452
 452, 318,  45, 239
 453, 325, 319, 244
 454, 391, 207, 355
 455, 416, 138, 381
 456, 320,  57, 284
 457, 321, 239,  14
 458, 452, 321, 210
 459, 471, 322, 209
 460, 471, 349, 322
 461, 477, 323, 208
 462, 477, 351, 323
 463, 472, 324, 207
 464, 472, 353, 324
 465, 325, 244, 245
 466, 809, 325, 205
 467, 333,  20, 247
 468, 475, 358, 326
 469, 453, 327, 141
 470, 327, 278, 279
 471, 473, 328, 140
 472, 473, 387, 328
 473, 478, 329, 139
 474, 478, 385, 329
 475, 474, 330, 138
 476, 474, 383, 330
 477, 331, 284, 285
 478, 810, 331, 136
 479, 334,  59, 287
 480, 476, 378, 332
 481, 485, 333, 335
 482, 333, 204, 326
 483, 486, 334, 336
 484, 334, 135, 332
 485, 361,  21, 248
 486, 485, 335, 203
 487, 375,  60, 288
 488, 486, 336, 134
 489, 481, 447, 449
 490, 400, 229,   4
 491, 441, 398, 338
 492, 338,  27, 254
 493, 507, 339, 429
 494, 428, 339, 116
 495, 507, 429, 117
 496, 340,  73, 302
 497, 514, 430, 118
 498, 341,  74, 303
 499, 503, 342, 394
 500, 393, 342, 202
 501, 395, 363, 200
 502, 394, 343, 201
 503, 448, 424, 344
 504, 344,  67, 295
 505, 489, 345, 402
 506, 401, 345, 184
 507, 500, 422, 129
 508, 346,  65, 293
 509, 424, 347, 294
 510, 490, 423, 128
 511, 440, 348, 127
 512, 348, 313, 314
 513, 349, 240, 322
 514, 349, 210, 321
 515, 440, 350, 312
 516, 502, 350, 440
 517, 351, 241, 323
 518, 351, 209, 322
 519, 492, 352, 439
 520, 438, 352, 125
 521, 353, 242, 324
 522, 353, 208, 323
 523, 484, 354, 438
 524, 437, 354, 124
 525, 391, 243,  18
 526, 355, 207, 324
 527, 806, 356, 437
 528, 436, 356, 123
 529, 480, 359, 434
 530, 357,  78, 307
 531, 392, 358, 205
 532, 358, 246, 326
 533, 487, 433, 121
 534, 359,  77, 306
 535, 495, 432, 120
 536, 360,  76, 305
 537, 493, 361, 393
 538, 361, 203, 335
 539, 505, 431, 119
 540, 362,  75, 304
 541, 396, 364, 199
 542, 512, 395, 200
 543, 397, 365, 198
 544, 509, 396, 199
 545, 398, 365, 253
 546, 499, 397, 198
 547, 497, 366, 403
 548, 402, 366, 185
 549, 510, 421, 130
 550, 367,  64, 292
 551, 508, 368, 404
 552, 403, 368, 186
 553, 513, 420, 131
 554, 369,  63, 291
 555, 405, 372, 188
 556, 508, 404, 187
 557, 419, 371, 132
 558, 371,  62, 290
 559, 406, 374, 189
 560, 515, 405, 188
 561, 504, 373, 419
 562, 418, 373, 133
 563, 407, 376, 190
 564, 506, 406, 189
 565, 494, 375, 418
 566, 375, 134, 336
 567, 408, 377, 191
 568, 496, 407, 190
 569, 409, 379, 192
 570, 488, 408, 191
 571, 417, 378, 136
 572, 378, 286, 332
 573, 410, 379, 267
 574, 479, 409, 192
 575, 807, 380, 412
 576, 411, 380, 193
 577, 381, 138, 330
 578, 381,  56, 283
 579, 483, 382, 413
 580, 412, 382, 194
 581, 383, 139, 329
 582, 383,  55, 282
 583, 491, 384, 414
 584, 413, 384, 195
 585, 385, 140, 328
 586, 385,  54, 281
 587, 501, 386, 415
 588, 414, 386, 196
 589, 387, 141, 327
 590, 387,  53, 280
 591, 415, 388, 197
 592, 388, 273, 274
 593, 498, 389, 428
 594, 427, 389, 115
 595, 450, 115, 443
 596, 426,  11, 236
 597, 391, 319, 206
 598, 696, 391, 206
 599, 392,  19, 358
 600, 392, 205, 325
 601, 393,  22, 342
 602, 493, 393, 202
 603, 394,  23, 343
 604, 503, 394, 201
 605, 395, 343, 250
 606, 395, 250,  24
 607, 396, 363, 251
 608, 396, 251,  25
 609, 397, 364, 252
 610, 397, 252,  26
 611, 398, 253,  27
 612, 441, 338,   2
 613, 400, 257,  30
 614, 399,   4, 228
 615, 400,  30, 337
 616, 449, 400, 337
 617, 401,  31, 345
 618, 481, 401, 184
 619, 402,  32, 366
 620, 489, 402, 185
 621, 403,  33, 368
 622, 497, 403, 186
 623, 404, 368, 261
 624, 404, 261,  34
 625, 405, 370, 262
 626, 405, 262,  35
 627, 406, 372, 263
 628, 406, 263,  36
 629, 407, 374, 264
 630, 407, 264,  37
 631, 408, 376, 265
 632, 408, 265,  38
 633, 409, 377, 266
 634, 409, 266,  39
 635, 410, 267, 268
 636, 694, 410, 193
 637, 411,  40, 380
 638, 411, 193, 410
 639, 412,  41, 382
 640, 807, 412, 194
 641, 413,  42, 384
 642, 483, 413, 195
 643, 414,  43, 386
 644, 491, 414, 196
 645, 415,  44, 388
 646, 501, 415, 197
 647, 416, 320, 137
 648, 697, 416, 137
 649, 417,  58, 378
 650, 417, 136, 331
 651, 418,  61, 373
 652, 494, 418, 133
 653, 419,  62, 371
 654, 504, 419, 132
 655, 420, 290,  63
 656, 420, 369, 131
 657, 421, 291,  64
 658, 421, 367, 130
 659, 422, 292,  65
 660, 422, 346, 129
 661, 423, 346, 293
 662, 423, 293,  66
 663, 424, 294,  67
 664, 448, 344, 233
 665, 425,  68, 234
 666, 425,   9, 344
 667, 445, 426, 236
 668, 426,  70, 390
 669, 427,  71, 389
 670, 450, 427, 115
 671, 428,  72, 339
 672, 498, 428, 116
 673, 429, 339, 301
 674, 429, 301,  73
 675, 430, 340, 302
 676, 430, 302,  74
 677, 431, 341, 303
 678, 431, 303,  75
 679, 432, 304,  76
 680, 432, 360, 120
 681, 433, 305,  77
 682, 433, 359, 121
 683, 434, 306,  78
 684, 434, 357, 122
 685, 435, 307, 308
 686, 695, 435, 123
 687, 436,  79, 356
 688, 436, 123, 435
 689, 437,  80, 354
 690, 806, 437, 124
 691, 438,  81, 352
 692, 484, 438, 125
 693, 439,  82, 350
 694, 492, 439, 126
 695, 440,  83, 348
 696, 502, 440, 127
 697, 444, 441, 225
 698, 441, 198, 365
 699, 482, 448, 442
 700, 442,   8, 232
 701, 511, 443, 115
 702, 443,  12, 237
 703, 444,   1, 211
 704, 444, 198, 441
 705, 445,  69, 298
 706, 445, 298, 426
 707, 446, 211, 224
 708, 451, 446,  13
 709, 449, 447,   5
 710, 524, 447, 184
 711, 448, 233,   8
 712, 448,   8, 442
 713, 449,   5, 229
 714, 449, 229, 400
 715, 450, 237,  11
 716, 450, 390, 427
 717, 451,  13, 238
 718, 516, 451,  90
 719, 520, 469, 210
 720, 452,  89, 318
 721, 519, 465, 141
 722, 453,  51, 278
 723, 468, 454, 316
 724, 713, 667, 102
 725, 466, 127, 348
 726, 455,  85, 315
 727, 463, 456, 183
 728, 464, 456, 276
 729, 462, 197, 388
 730, 457,  47, 275
 731, 741, 223, 641
 732, 458,  88, 317
 733, 459,  49,  50
 734, 740, 155, 640
 735, 741, 468, 460
 736, 460,  87,  88
 737, 461, 155, 459
 738, 461,  50, 277
 739, 462, 388, 274
 740, 462,  47, 457
 741, 463,  48, 456
 742, 521, 463, 183
 743, 464,  49, 459
 744, 712, 464, 169
 745, 465, 277,  51
 746, 465, 453, 141
 747, 466, 348, 314
 748, 466,  85, 455
 749, 467,  86, 454
 750, 522, 467, 102
 751, 468,  87, 460
 752, 713, 468, 103
 753, 469, 317,  89
 754, 469, 452, 210
 755, 470,   3, 226
 756, 470, 226, 338
 757, 585, 209, 547
 758, 471, 210, 349
 759, 618, 533, 472
 760, 472, 208, 353
 761, 586, 140, 546
 762, 473, 141, 387
 763, 619, 532, 474
 764, 474, 139, 383
 765, 612, 526, 204
 766, 475, 205, 358
 767, 613, 527, 135
 768, 476, 136, 378
 769, 595, 547, 477
 770, 477, 209, 351
 771, 596, 546, 478
 772, 478, 140, 385
 773, 615, 529, 479
 774, 479, 191, 377
 775, 616, 528, 480
 776, 480, 121, 359
 777, 481, 337, 401
 778, 481, 184, 447
 779, 482, 128, 347
 780, 482, 424, 448
 781, 598, 530, 195
 782, 483, 194, 382
 783, 597, 531, 125
 784, 484, 124, 354
 785, 594, 534, 203
 786, 485, 204, 333
 787, 593, 535, 134
 788, 486, 135, 334
 789, 614, 537, 487
 790, 487, 120, 360
 791, 617, 536, 488
 792, 488, 190, 376
 793, 590, 538, 185
 794, 489, 184, 345
 795, 523, 490, 128
 796, 490, 129, 346
 797, 588, 544, 196
 798, 491, 195, 384
 799, 587, 545, 126
 800, 492, 125, 352
 801, 583, 549, 202
 802, 493, 203, 361
 803, 584, 550, 133
 804, 494, 134, 375
 805, 591, 551, 495
 806, 495, 119, 362
 807, 592, 552, 496
 808, 496, 189, 374
 809, 580, 553, 186
 810, 497, 185, 366
 811, 579, 554, 116
 812, 498, 115, 389
 813, 518, 499, 198
 814, 499, 199, 364
 815, 589, 555, 500
 816, 500, 130, 367
 817, 540, 197, 521
 818, 501, 196, 386
 819, 541, 127, 522
 820, 502, 126, 350
 821, 575, 558, 201
 822, 503, 202, 342
 823, 574, 559, 132
 824, 504, 133, 373
 825, 581, 560, 505
 826, 505, 118, 341
 827, 582, 561, 506
 828, 506, 188, 372
 829, 568, 562, 117
 830, 507, 116, 339
 831, 569, 563, 187
 832, 508, 186, 368
 833, 577, 565, 509
 834, 509, 200, 363
 835, 578, 564, 510
 836, 510, 131, 369
 837, 511,  90, 443
 838, 511, 115, 498
 839, 566, 200, 565
 840, 512, 201, 343
 841, 567, 131, 564
 842, 513, 132, 371
 843, 572, 118, 560
 844, 514, 117, 340
 845, 573, 188, 561
 846, 515, 187, 370
 847, 775,  90, 511
 848, 624, 570, 516
 849, 665, 518, 211
 850, 517, 211, 446
 851, 518, 198, 444
 852, 665, 211, 517
 853, 542, 141, 473
 854, 519, 155, 461
 855, 543, 210, 471
 856, 520, 223, 458
 857, 540, 521, 183
 858, 521, 197, 457
 859, 541, 522, 102
 860, 522, 127, 455
 861, 523, 128, 442
 862, 576, 539, 523
 863, 524, 170, 447
 864, 524, 184, 489
 865, 548, 525, 170
 866, 671, 557, 548
 867, 770, 526, 217
 868, 803, 800, 205
 869, 769, 527, 149
 870, 802, 801, 136
 871, 627, 528, 616
 872, 614, 528,  96
 873, 626, 529, 615
 874, 617, 529, 177
 875, 735, 530, 181
 876, 780, 530, 735
 877, 734, 531, 100
 878, 781, 531, 734
 879, 631, 532, 619
 880, 596, 532, 153
 881, 630, 533, 618
 882, 595, 533, 221
 883, 669, 534, 216
 884, 669, 612, 534
 885, 670, 535, 148
 886, 670, 613, 535
 887, 638, 536, 617
 888, 592, 536, 176
 889, 639, 537, 614
 890, 591, 537,  95
 891, 538, 489, 185
 892, 622, 171, 548
 893, 589, 539, 143
 894, 539, 490, 523
 895, 610, 540, 183
 896, 610, 588, 540
 897, 611, 541, 102
 898, 611, 587, 541
 899, 620, 542, 586
 900, 542, 155, 519
 901, 621, 543, 585
 902, 543, 223, 520
 903, 599, 598, 544
 904, 599, 544, 182
 905, 600, 597, 545
 906, 600, 545, 101
 907, 736, 546, 596
 908, 586, 546, 154
 909, 737, 547, 595
 910, 585, 547, 222
 911, 622, 170, 524
 912, 671, 548, 171
 913, 601, 594, 549
 914, 601, 549, 215
 915, 602, 593, 550
 916, 602, 550, 147
 917, 771, 551, 591
 918, 581, 551,  94
 919, 772, 552, 592
 920, 582, 552, 175
 921, 603, 590, 553
 922, 603, 553, 172
 923, 554, 498, 116
 924, 775,  91, 516
 925, 762, 555, 589
 926, 578, 555, 144
 927, 577, 556, 212
 928, 556, 499, 518
 929, 808, 749, 143
 930, 557, 156, 525
 931, 604, 583, 558
 932, 604, 558, 214
 933, 605, 584, 559
 934, 605, 559, 146
 935, 773, 560, 581
 936, 572, 560,  93
 937, 774, 561, 582
 938, 573, 561, 174
 939, 606, 579, 562
 940, 606, 562,  92
 941, 607, 580, 563
 942, 607, 563, 173
 943, 674, 564, 578
 944, 567, 564, 145
 945, 698, 675, 629
 946, 566, 565, 213
 947, 608, 566, 213
 948, 608, 575, 566
 949, 609, 567, 145
 950, 609, 574, 567
 951, 672, 568, 572
 952, 568,  92, 562
 953, 673, 569, 573
 954, 569, 173, 563
 955, 571, 570, 114
 956, 570, 451, 516
 957, 625, 571, 114
 958, 571, 517, 446
 959, 572, 514, 118
 960, 672, 572,  93
 961, 573, 515, 188
 962, 673, 573, 174
 963, 574, 146, 559
 964, 574, 513, 567
 965, 575, 214, 558
 966, 575, 512, 566
 967, 811, 623, 668
 968, 576, 143, 539
 969, 577, 199, 556
 970, 675, 212, 629
 971, 578, 130, 555
 972, 674, 578, 144
 973, 579,  91, 554
 974, 579, 116, 507
 975, 580, 172, 553
 976, 580, 186, 508
 977, 581, 119, 551
 978, 773, 581,  94
 979, 582, 189, 552
 980, 774, 582, 175
 981, 583, 215, 549
 982, 583, 202, 503
 983, 584, 147, 550
 984, 584, 133, 504
 985, 585, 471, 209
 986, 621, 585, 222
 987, 586, 473, 140
 988, 620, 586, 154
 989, 587, 101, 545
 990, 587, 502, 541
 991, 588, 182, 544
 992, 588, 501, 540
 993, 589, 129, 539
 994, 762, 589, 143
 995, 590, 171, 538
 996, 590, 185, 497
 997, 591, 120, 537
 998, 771, 591,  95
 999, 592, 190, 536
1000, 772, 592, 176
1001, 593, 148, 535
1002, 593, 134, 494
1003, 594, 216, 534
1004, 594, 203, 493
1005, 595, 208, 533
1006, 737, 595, 221
1007, 596, 139, 532
1008, 736, 596, 153
1009, 597, 100, 531
1010, 597, 125, 492
1011, 598, 181, 530
1012, 598, 195, 491
1013, 642, 182, 637
1014, 599, 181, 598
1015, 643, 101, 636
1016, 600, 100, 597
1017, 656, 644, 215
1018, 601, 216, 594
1019, 657, 645, 147
1020, 602, 148, 593
1021, 653, 646, 172
1022, 603, 171, 590
1023, 655, 649, 214
1024, 604, 215, 583
1025, 654, 650, 146
1026, 605, 147, 584
1027, 651, 628, 606
1028, 606,  91, 579
1029, 700, 652, 173
1030, 607, 172, 580
1031, 698, 647, 213
1032, 608, 214, 575
1033, 699, 648, 145
1034, 609, 146, 574
1035, 712, 183, 456
1036, 610, 182, 588
1037, 713, 102, 454
1038, 611, 101, 587
1039, 612, 217, 526
1040, 612, 204, 485
1041, 613, 149, 527
1042, 613, 135, 486
1043, 614, 121, 528
1044, 639, 614,  96
1045, 632, 615, 192
1046, 632, 626, 615
1047, 633, 616, 122
1048, 633, 627, 616
1049, 617, 191, 529
1050, 638, 617, 177
1051, 634, 618, 207
1052, 634, 630, 618
1053, 635, 619, 138
1054, 635, 631, 619
1055, 663, 640, 620
1056, 620, 155, 542
1057, 664, 621, 222
1058, 664, 641, 621
1059, 622, 524, 538
1060, 622, 538, 171
1061, 623, 156, 557
1062, 623, 557, 157
1063, 628,  91, 606
1064, 624, 114, 570
1065, 729, 698, 629
1066, 625, 212, 517
1067, 688, 626, 178
1068, 626, 177, 529
1069, 689, 627,  97
1070, 627,  96, 528
1071, 729, 628, 651
1072, 628, 114, 624
1073, 629, 212, 625
1074, 729, 629, 114
1075, 692, 630, 220
1076, 630, 221, 533
1077, 693, 631, 152
1078, 631, 153, 532
1079, 754, 686, 694
1080, 632, 178, 626
1081, 633,  97, 627
1082, 695, 633, 122
1083, 752, 690, 696
1084, 634, 220, 630
1085, 635, 152, 631
1086, 697, 635, 138
1087, 719, 636, 667
1088, 643, 636, 104
1089, 720, 637, 666
1090, 642, 637, 168
1091, 730, 702, 177
1092, 638, 176, 536
1093, 733, 703,  96
1094, 639,  95, 537
1095, 740, 640, 169
1096, 640, 155, 620
1097, 741, 641, 103
1098, 641, 223, 621
1099, 676, 642, 168
1100, 676, 662, 642
1101, 677, 643, 104
1102, 677, 661, 643
1103, 678, 644, 111
1104, 678, 660, 644
1105, 679, 645, 161
1106, 679, 659, 645
1107, 680, 646, 158
1108, 680, 658, 646
1109, 684, 647, 113
1110, 684, 655, 647
1111, 685, 648, 159
1112, 685, 654, 648
1113, 681, 649, 112
1114, 681, 656, 649
1115, 682, 650, 160
1116, 682, 657, 650
1117, 701, 651,  92
1118, 729, 651, 113
1119, 683, 652, 159
1120, 683, 653, 652
1121, 653, 158, 646
1122, 653, 172, 607
1123, 654, 160, 650
1124, 654, 609, 648
1125, 655, 112, 649
1126, 655, 608, 647
1127, 656, 111, 644
1128, 656, 215, 604
1129, 657, 161, 645
1130, 657, 147, 605
1131, 671, 658, 157
1132, 658, 171, 603
1133, 706, 659, 162
1134, 659, 148, 602
1135, 707, 660, 110
1136, 660, 216, 601
1137, 708, 661, 105
1138, 661, 100, 600
1139, 709, 662, 167
1140, 662, 181, 599
1141, 710, 663, 154
1142, 720, 663, 168
1143, 711, 664, 222
1144, 719, 664, 104
1145, 665, 517, 212
1146, 665, 212, 556
1147, 666, 610, 183
1148, 720, 666, 169
1149, 667, 611, 102
1150, 719, 667, 103
1151, 668, 143, 576
1152, 668, 576, 142
1153, 707, 705, 669
1154, 669, 217, 612
1155, 706, 704, 670
1156, 670, 149, 613
1157, 671, 171, 658
1158, 671, 157, 557
1159, 738, 714,  93
1160, 672,  92, 568
1161, 739, 715, 174
1162, 673, 173, 569
1163, 742, 716, 144
1164, 674, 145, 564
1165, 675, 565, 577
1166, 675, 577, 212
1167, 710, 168, 663
1168, 676, 167, 662
1169, 711, 104, 664
1170, 677, 105, 661
1171, 747, 745, 111
1172, 678, 110, 660
1173, 748, 746, 161
1174, 679, 162, 659
1175, 742, 680, 158
1176, 680, 157, 658
1177, 738, 681, 112
1178, 681, 111, 656
1179, 739, 682, 160
1180, 682, 161, 657
1181, 699, 683, 159
1182, 683, 158, 653
1183, 701, 684, 113
1184, 684, 112, 655
1185, 700, 685, 159
1186, 685, 160, 654
1187, 765, 726, 686
1188, 686, 178, 632
1189, 766, 725, 687
1190, 687,  97, 633
1191, 726, 688, 178
1192, 760, 688, 164
1193, 725, 689,  97
1194, 761, 689, 108
1195, 767, 728, 690
1196, 690, 220, 634
1197, 768, 727, 691
1198, 691, 152, 635
1199, 728, 692, 220
1200, 763, 692, 723
1201, 727, 693, 152
1202, 764, 693, 724
1203, 694, 192, 410
1204, 754, 694, 193
1205, 695, 122, 435
1206, 755, 695, 123
1207, 696, 207, 391
1208, 752, 696, 206
1209, 697, 138, 416
1210, 753, 697, 137
1211, 698, 113, 647
1212, 698, 213, 675
1213, 699, 159, 648
1214, 699, 145, 674
1215, 700, 159, 652
1216, 700, 173, 673
1217, 701, 113, 651
1218, 701,  92, 672
1219, 722, 717, 702
1220, 722, 702, 163
1221, 721, 718, 703
1222, 721, 703, 109
1223, 722, 704, 706
1224, 731, 704, 163
1225, 721, 705, 707
1226, 732, 705, 109
1227, 706, 148, 659
1228, 722, 706, 162
1229, 707, 216, 660
1230, 721, 707, 110
1231, 804, 723, 106
1232, 708, 100, 661
1233, 709, 181, 662
1234, 724, 709, 167
1235, 736, 710, 154
1236, 751, 710, 736
1237, 737, 711, 222
1238, 750, 711, 737
1239, 712, 456, 464
1240, 712, 169, 666
1241, 713, 454, 468
1242, 713, 103, 667
1243, 714, 672,  93
1244, 714, 112, 684
1245, 715, 673, 174
1246, 715, 160, 685
1247, 716, 674, 144
1248, 716, 158, 683
1249, 743, 717, 162
1250, 717, 176, 638
1251, 744, 718, 110
1252, 718,  95, 639
1253, 719, 103, 641
1254, 719, 104, 636
1255, 720, 169, 640
1256, 720, 168, 637
1257, 721, 109, 705
1258, 721, 110, 718
1259, 722, 163, 704
1260, 722, 162, 717
1261, 763, 723, 105
1262, 804, 734, 708
1263, 764, 724, 167
1264, 805, 735, 709
1265, 779, 725, 766
1266, 725, 108, 689
1267, 778, 726, 765
1268, 726, 164, 688
1269, 785, 727, 768
1270, 727, 166, 693
1271, 784, 728, 767
1272, 728, 106, 692
1273, 729, 114, 628
1274, 729, 113, 698
1275, 730, 163, 702
1276, 730, 177, 688
1277, 794, 769, 731
1278, 731, 149, 704
1279, 732, 217, 705
1280, 761, 732, 109
1281, 733, 109, 703
1282, 733,  96, 689
1283, 781, 776, 531
1284, 734, 100, 708
1285, 780, 777, 530
1286, 735, 181, 709
1287, 751, 736, 153
1288, 736, 154, 546
1289, 750, 737, 221
1290, 737, 222, 547
1291, 738, 112, 714
1292, 773, 738,  93
1293, 739, 160, 715
1294, 774, 739, 174
1295, 740, 169, 464
1296, 740, 459, 155
1297, 741, 103, 468
1298, 741, 460, 223
1299, 742, 158, 716
1300, 762, 742, 144
1301, 743, 176, 717
1302, 743, 162, 679
1303, 744,  95, 718
1304, 744, 110, 678
1305, 745, 678, 111
1306, 771, 745,  94
1307, 746, 679, 161
1308, 772, 746, 175
1309, 747,  94, 745
1310, 747, 681, 738
1311, 748, 175, 746
1312, 748, 682, 739
1313, 808, 143, 668
1314, 749, 680, 742
1315, 763, 750, 221
1316, 750, 105, 677
1317, 764, 751, 153
1318, 751, 167, 676
1319, 809, 759, 206
1320, 752, 219, 690
1321, 810, 758, 137
1322, 753, 151, 691
1323, 807, 757, 193
1324, 754, 179, 686
1325, 806, 756, 123
1326, 755,  98, 687
1327, 806, 788, 756
1328, 756,  98, 755
1329, 807, 789, 757
1330, 757, 179, 754
1331, 810, 801, 758
1332, 758, 151, 753
1333, 809, 800, 759
1334, 759, 219, 752
1335, 760, 163, 730
1336, 812, 164, 796
1337, 761, 109, 733
1338, 813, 108, 797
1339, 762, 144, 555
1340, 762, 143, 749
1341, 763, 105, 750
1342, 763, 221, 692
1343, 764, 167, 751
1344, 764, 153, 693
1345, 782, 765, 179
1346, 782, 778, 765
1347, 783, 766,  98
1348, 783, 779, 766
1349, 786, 767, 219
1350, 784, 767, 107
1351, 787, 768, 151
1352, 785, 768, 165
1353, 802, 769, 150
1354, 769, 149, 731
1355, 803, 770, 218
1356, 770, 217, 732
1357, 771,  94, 551
1358, 771,  95, 744
1359, 772, 175, 552
1360, 772, 176, 743
1361, 773,  93, 560
1362, 773,  94, 747
1363, 774, 174, 561
1364, 774, 175, 748
1365, 775, 516,  90
1366, 775, 511, 554
1367, 788, 776, 781
1368, 776, 124, 484
1369, 789, 777, 780
1370, 777, 194, 483
1371, 787, 778, 165
1372, 778, 164, 726
1373, 786, 779, 107
1374, 779, 108, 725
1375, 780, 735, 180
1376, 789, 780, 180
1377, 781, 734,  99
1378, 788, 781,  99
1379, 799, 790, 180
1380, 782, 165, 778
1381, 783, 107, 779
1382, 791, 783,  98
1383, 784, 107, 783
1384, 784, 106, 728
1385, 785, 165, 782
1386, 785, 166, 727
1387, 813, 792, 218
1388, 786, 107, 767
1389, 787, 165, 768
1390, 793, 787, 151
1391, 788, 124, 776
1392, 791, 788,  99
1393, 789, 194, 777
1394, 790, 789, 180
1395, 790, 179, 757
1396, 805, 799, 180
1397, 791,  98, 756
1398, 804, 798,  99
1399, 792, 219, 759
1400, 813, 797, 792
1401, 793, 151, 758
1402, 812, 796, 793
1403, 794, 760, 164
1404, 794, 150, 769
1405, 795, 761, 108
1406, 795, 218, 770
1407, 796, 164, 778
1408, 796, 787, 793
1409, 797, 108, 779
1410, 797, 786, 792
1411, 798, 106, 784
1412, 798, 783, 791
1413, 799, 166, 785
1414, 799, 782, 790
1415, 803, 205, 526
1416, 800, 218, 792
1417, 802, 136, 527
1418, 801, 150, 793
1419, 802, 527, 769
1420, 802, 150, 801
1421, 803, 526, 770
1422, 803, 218, 800
1423, 804, 106, 798
1424, 804,  99, 734
1425, 805, 166, 799
1426, 805, 180, 735
1427, 806, 123, 356
1428, 806, 124, 788
1429, 807, 193, 380
1430, 807, 194, 789
1431, 808, 668, 623
1432, 808, 157, 749
1433, 809, 206, 325
1434, 809, 205, 800
1435, 810, 137, 331
1436, 810, 136, 801
1437, 811, 142,   7
1438, 811,   7, 231
1439, 812, 150, 794
1440, 812, 794, 164
1441, 813, 218, 795
1442, 813, 795, 108
*Nset, nset=_PickedSet2, internal, generate
   1,  813,    1
*Elset, elset=_PickedSet2, internal, generate
    1,  1442,     1
** Section: Section-1
*Solid Section, elset=_PickedSet2, material=Material-1
1.,
*End Part
**  
**
** ASSEMBLY
**
*Assembly, name=Assembly
**  
*Instance, name=plate-1, part=plate
*End Instance
**  
*Nset, nset=LeftEdgeSet, instance=plate-1
  46,  47,  48,  49,  50,  51,  52, 274, 275, 276, 277, 278
*Elset, elset=LeftEdgeSet, instance=plate-1
 238, 324, 407, 409, 410, 412, 722, 730, 733, 738, 745
*Elset, elset=_LoadSurface_S2, internal, instance=plate-1
  56,  59, 447, 449, 450, 720, 726, 732, 736, 753
*Elset, elset=_LoadSurface_S1, internal, instance=plate-1
 452,
*Surface, type=ELEMENT, name=LoadSurface
_LoadSurface_S2, S2
_LoadSurface_S1, S1
*End Assembly
** 
** MATERIALS
** 
*Material, name=Material-1
*Elastic
 2.9e+07, 0.3
** 
** BOUNDARY CONDITIONS
** 
** Name: BC-LeftEdge Type: Displacement/Rotation
*Boundary
LeftEdgeSet, 1, 1
LeftEdgeSet, 2, 2
** ----------------------------------------------------------------
** 
** STEP: Step-1
** 
*Step, name=Step-1, nlgeom=NO
*Static
1., 1., 1e-05, 1.
** 
** LOADS
** 
** Name: Load-1   Type: Pressure
*Dsload
LoadSurface, P, -1000.
** 
** OUTPUT REQUESTS
** 
*Restart, write, frequency=0
** 
** FIELD OUTPUT: F-Output-1
** 
*Output, field, variable=PRESELECT
** 
** HISTORY OUTPUT: H-Output-1
** 
*Output, history, variable=PRESELECT
*End Step
