*Heading
** Job name: plate_circle8__8499 Model name: PlateModel
** Generated by: Abaqus/CAE 2022
*Preprint, echo=NO, model=NO, history=NO, contact=NO
**
** PARTS
**
*Part, name=plate
*Node
      1,    3.6038754,   1.73553491
      2,   2.49395919,   3.12732601
      3,   0.89008373,   3.89971161
      4,  -1.73553491,    3.6038754
      5,  -3.12732601,   2.49395919
      6,  -3.89971161,   0.89008373
      7,  -3.89971161,  -0.89008373
      8,  -3.12732601,  -2.49395919
      9,  -1.73553491,   -3.6038754
     10,   0.89008373,  -3.89971161
     11,   2.49395919,  -3.12732601
     12,    3.6038754,  -1.73553491
     13,           4.,           0.
     14,   28.2089558,           5.
     15,   26.4179096,           5.
     16,   24.6268654,           5.
     17,   22.8358212,           5.
     18,   21.0447769,           5.
     19,   18.3582096,           5.
     20,   16.5671635,           5.
     21,   14.7761192,           5.
     22,    12.985075,           5.
     23,   11.1940298,           5.
     24,   9.40298462,           5.
     25,   7.61194038,           5.
     26,   5.82089567,           5.
     27,   4.02985096,           5.
     28,   2.23880601,           5.
     29,  0.447761208,           5.
     30,  -2.23880601,           5.
     31,  -4.02985096,           5.
     32,  -5.82089567,           5.
     33,  -7.61194038,           5.
     34,  -9.40298462,           5.
     35,  -11.1940298,           5.
     36,   -12.985075,           5.
     37,  -14.7761192,           5.
     38,  -16.5671635,           5.
     39,  -18.3582096,           5.
     40,  -21.0447769,           5.
     41,  -22.8358212,           5.
     42,  -24.6268654,           5.
     43,  -26.4179096,           5.
     44,  -28.2089558,           5.
     45,          30.,           5.
     46,         -30.,           5.
     47,         -30.,   3.18181825
     48,         -30.,   1.36363637
     49,         -30., -0.454545468
     50,         -30.,  -1.36363637
     51,         -30.,  -3.18181825
     52,         -30.,          -5.
     53,  -28.2089558,          -5.
     54,  -26.4179096,          -5.
     55,  -24.6268654,          -5.
     56,  -22.8358212,          -5.
     57,  -21.0447769,          -5.
     58,  -18.3582096,          -5.
     59,  -16.5671635,          -5.
     60,  -14.7761192,          -5.
     61,   -12.985075,          -5.
     62,  -11.1940298,          -5.
     63,  -9.40298462,          -5.
     64,  -7.61194038,          -5.
     65,  -5.82089567,          -5.
     66,  -4.02985096,          -5.
     67,  -2.23880601,          -5.
     68, -0.447761208,          -5.
     69,   2.23880601,          -5.
     70,   4.02985096,          -5.
     71,   5.82089567,          -5.
     72,   7.61194038,          -5.
     73,   9.40298462,          -5.
     74,   11.1940298,          -5.
     75,    12.985075,          -5.
     76,   14.7761192,          -5.
     77,   16.5671635,          -5.
     78,   18.3582096,          -5.
     79,   21.0447769,          -5.
     80,   22.8358212,          -5.
     81,   24.6268654,          -5.
     82,   26.4179096,          -5.
     83,   28.2089558,          -5.
     84,          30.,          -5.
     85,          30.,  -3.18181825
     86,          30.,  -1.36363637
     87,          30.,  0.454545468
     88,          30.,   1.36363637
     89,          30.,   3.18181825
     90,   5.71547604,   -1.5852313
     91,   7.64466953,  -1.73664415
     92,   9.38021469,  -1.70086849
     93,   11.2419748,  -1.71536493
     94,   13.0987844,  -1.73499656
     95,    14.967061,  -1.72863257
     96,   16.8452244,  -1.72743809
     97,   18.7383137,  -1.72663963
     98,   20.6217899,  -1.72937477
     99,   22.5291519,  -1.74668932
    100,   24.4369946,   -1.7368499
    101,   26.3047867,  -1.73292303
    102,   28.1999512,  -1.60354245
    103,   27.9996719, 0.00866311137
    104,   26.4802437, 0.0233298615
    105,   24.4320564, 0.0108337132
    106,   22.5091724, 0.00467583723
    107,   20.6134949, 0.0244906712
    108,   18.7443104, 0.0267194752
    109,   16.8637123, 0.0309006386
    110,   14.9861069, 0.0306804962
    111,   13.1143017, 0.0144456169
    112,   11.2443113, 0.00949567463
    113,   9.36519814, -0.00204677251
    114,    7.4127388, -0.0521881543
    115,   6.11613894,  0.126808539
    116,   3.55906415,  -3.43878531
    117,   5.78682947,  -3.06293583
    118,   7.54135275,  -3.36248732
    119,   9.39063549,  -3.37120438
    120,   11.2191839,  -3.38761663
    121,   13.0446596,  -3.40618992
    122,   14.8911076,  -3.41203403
    123,   16.7485695,  -3.42808914
    124,   18.7706661,  -3.54052949
    125,   20.6089134,  -3.53354764
    126,   22.6351395,  -3.42485476
    127,   24.5027637,  -3.41503787
    128,   26.3584518,   -3.3877418
    129,   28.3751793,   -3.2626791
    130,  -3.69187403,  -3.27456498
    131,  -5.67383909,  -3.35703516
    132,  -7.53008127,   -3.3982234
    133,  -9.38595486,   -3.4041183
    134,  -11.2123241,    -3.410815
    135,  -13.0404768,   -3.4185524
    136,   -14.890274,  -3.41654897
    137,  -16.7484283,   -3.4173553
    138,  -18.7763252,  -3.53091097
    139,  -20.6143208,  -3.54535532
    140,  -22.6388969,   -3.4369967
    141,  -24.5026817,  -3.41939449
    142,  -26.3572006,  -3.39285493
    143,  -28.3745823,   -3.2617619
    144,  -5.75438023,  -1.80546689
    145,  -7.33380604,   -1.6906172
    146,  -9.35920811,   -1.7348361
    147,  -11.2247353,  -1.76403868
    148,    -13.08323,  -1.77167988
    149,  -14.9612617,  -1.75225699
    150,  -16.8433552,   -1.7261306
    151,  -18.7407818,  -1.72035384
    152,  -20.6255455,   -1.7462709
    153,  -22.5300808,  -1.75356317
    154,  -24.4349098,  -1.75269794
    155,  -26.3011322,  -1.76592195
    156,  -28.1974697,  -1.61038673
    157,  -5.56672955, 0.00210879999
    158,  -7.29868746, 0.0560311526
    159,  -9.35486412, 0.00712844683
    160,  -11.2339764, -0.0253062267
    161,  -13.0992546, -0.0262435135
    162,  -14.9799576, -0.000775054737
    163,  -16.8614216, 0.0253916308
    164,  -18.7434063, 0.0274859983
    165,  -20.6132622, 0.00589754153
    166,  -22.5090904, 0.00125519966
    167,  -24.4321117, -0.0103684813
    168,  -26.4803123, -0.0232437328
    169,  -27.9997196, -0.00863483455
    170,  -5.76265144,   1.75424767
    171,  -7.52660561,    1.8005873
    172,  -9.37909889,   1.74678743
    173,  -11.2334604,   1.73340917
    174,   -13.085228,   1.74176776
    175,  -14.9612789,   1.75200915
    176,  -16.8430042,   1.76104712
    177,   -18.737402,   1.75761843
    178,  -20.6214676,   1.74609578
    179,  -22.5289841,   1.74950969
    180,  -24.4370327,    1.7371527
    181,  -26.3048534,   1.73304117
    182,  -28.1999874,    1.6035763
    183,  -3.84447598,   3.35157895
    184,  -5.71827888,   3.36442304
    185,  -7.57070541,   3.40867209
    186,   -9.3932066,   3.40654731
    187,  -11.2141256,   3.40755892
    188,  -13.0400066,   3.41713119
    189,  -14.8890114,   3.41810989
    190,  -16.7476158,   3.43151283
    191,  -18.7702904,   3.54270124
    192,  -20.6087246,   3.53453565
    193,  -22.6350193,   3.42506623
    194,  -24.5027542,   3.41516709
    195,  -26.3584728,   3.38781047
    196,  -28.3751926,   3.26269698
    197,   3.69230485,   3.28062296
    198,   5.67671251,   3.31257939
    199,   7.56292582,   3.35906005
    200,   9.39183712,    3.3887651
    201,   11.2141047,   3.40077949
    202,   13.0423231,   3.41374683
    203,   14.8910742,   3.41561556
    204,   16.7487984,   3.41826057
    205,   18.7764263,   3.53229499
    206,   20.6143341,   3.54600763
    207,   22.6388969,   3.43707156
    208,   24.5026741,   3.41943002
    209,   26.3571968,   3.39287186
    210,   28.3745785,   3.26176643
    211,   5.53780842,   1.44434404
    212,   7.53239775,    1.6355679
    213,   9.37619877,   1.71213973
    214,   11.2325134,   1.73517609
    215,   13.0919466,   1.75499356
    216,   14.9641237,   1.76448572
    217,   16.8446312,   1.75585711
    218,   18.7413006,   1.75012136
    219,   20.6256237,   1.76247501
    220,   22.5300961,   1.75616193
    221,   24.4348812,   1.75286615
    222,   26.3011055,   1.76596856
    223,   28.1974506,   1.61040163
    224,   3.12732601,   2.49395919
    225,   1.73553491,    3.6038754
    226,           0.,           4.
    227,  -0.89008373,   3.89971161
    228,  -2.49395919,   3.12732601
    229,   -3.6038754,   1.73553491
    230,          -4.,           0.
    231,   -3.6038754,  -1.73553491
    232,  -2.49395919,  -3.12732601
    233,  -0.89008373,  -3.89971161
    234,           0.,          -4.
    235,   1.73553491,   -3.6038754
    236,   3.12732601,  -2.49395919
    237,   29.1044769,           5.
    238,   27.3134327,           5.
    239,   25.5223885,           5.
    240,   23.7313442,           5.
    241,   21.9402981,           5.
    242,   20.1492538,           5.
    243,   19.2537308,           5.
    244,   17.4626865,           5.
    245,   15.6716413,           5.
    246,   13.8805971,           5.
    247,   12.0895519,           5.
    248,   10.2985077,           5.
    249,    8.5074625,           5.
    250,   6.71641779,           5.
    251,   4.92537308,           5.
    252,   3.13432837,           5.
    253,   1.34328353,           5.
    254, -0.447761208,           5.
    255,  -1.34328353,           5.
    256,  -3.13432837,           5.
    257,  -4.92537308,           5.
    258,  -6.71641779,           5.
    259,   -8.5074625,           5.
    260,  -10.2985077,           5.
    261,  -12.0895519,           5.
    262,  -13.8805971,           5.
    263,  -15.6716413,           5.
    264,  -17.4626865,           5.
    265,  -19.2537308,           5.
    266,  -20.1492538,           5.
    267,  -21.9402981,           5.
    268,  -23.7313442,           5.
    269,  -25.5223885,           5.
    270,  -27.3134327,           5.
    271,  -29.1044769,           5.
    272,         -30.,     4.090909
    273,         -30.,   2.27272725
    274,         -30.,  0.454545468
    275,         -30.,  -2.27272725
    276,         -30.,    -4.090909
    277,  -29.1044769,          -5.
    278,  -27.3134327,          -5.
    279,  -25.5223885,          -5.
    280,  -23.7313442,          -5.
    281,  -21.9402981,          -5.
    282,  -20.1492538,          -5.
    283,  -19.2537308,          -5.
    284,  -17.4626865,          -5.
    285,  -15.6716413,          -5.
    286,  -13.8805971,          -5.
    287,  -12.0895519,          -5.
    288,  -10.2985077,          -5.
    289,   -8.5074625,          -5.
    290,  -6.71641779,          -5.
    291,  -4.92537308,          -5.
    292,  -3.13432837,          -5.
    293,  -1.34328353,          -5.
    294,  0.447761208,          -5.
    295,   1.34328353,          -5.
    296,   3.13432837,          -5.
    297,   4.92537308,          -5.
    298,   6.71641779,          -5.
    299,    8.5074625,          -5.
    300,   10.2985077,          -5.
    301,   12.0895519,          -5.
    302,   13.8805971,          -5.
    303,   15.6716413,          -5.
    304,   17.4626865,          -5.
    305,   19.2537308,          -5.
    306,   20.1492538,          -5.
    307,   21.9402981,          -5.
    308,   23.7313442,          -5.
    309,   25.5223885,          -5.
    310,   27.3134327,          -5.
    311,   29.1044769,          -5.
    312,          30.,    -4.090909
    313,          30.,  -2.27272725
    314,          30., -0.454545468
    315,          30.,   2.27272725
    316,          30.,     4.090909
    317,   3.89971161,   0.89008373
    318,   3.89971161,  -0.89008373
    319,   20.5740032,   4.39716291
    320,  -20.5739975,  -4.39702797
    321,   28.7935181,   4.16946077
    322,   26.8549366,   4.18855762
    323,    25.019352,   4.21302414
    324,   23.1909237,   4.22267628
    325,   19.6980972,   4.16349888
    326,   17.1215076,   4.22469997
    327,  -28.7935181,  -4.16945934
    328,  -26.8549366,   -4.1885519
    329,  -25.0193539,  -4.21301079
    330,  -23.1909256,    -4.222651
    331,  -19.6980762,  -4.16318989
    332,  -17.1214085,  -4.22461033
    333,   16.2057514,   4.21305466
    334,  -16.2055664,  -4.21307325
    335,   15.2919407,     4.210958
    336,  -15.2916508,  -4.21134377
    337,   2.63972354,  -4.12030602
    338,   4.34046555,  -4.19930077
    339,   27.8084431,   4.16241503
    340,    25.934103,   4.20310354
    341,  -11.6555681,   4.20883083
    342,  -13.4669247,   4.21329069
    343,  -9.84904861,   4.20615435
    344,  -4.39328098,   4.17306852
    345,  -6.22188282,   4.19051933
    346,   3.35639119,   4.12583637
    347,   24.1049042,   4.21413326
    348,   22.2748318,   4.23666954
    349,   18.0416183,   4.26488304
    350,   14.3778887,   4.21137762
    351,   12.5610619,   4.20930529
    352,    10.752326,   4.20268393
    353,   8.94572926,   4.19710398
    354,    7.1293087,   4.18178368
    355,   5.27944851,    4.1585393
    356,  -2.56628537,   4.09694576
    357,  -8.04258156,   4.20718527
    358,  -15.2920036,   4.21408701
    359,  -17.1206207,   4.23474598
    360,  -18.8221474,   4.39592171
    361,  -21.3529015,   4.26747131
    362,  -23.1881962,   4.21724033
    363,  -25.0193329,   4.21194363
    364,   -26.855154,   4.18764496
    365,  -28.7938137,   4.16982937
    366,   -27.808445,  -4.16241169
    367,  -25.9341049,  -4.20309401
    368,   -24.104908,  -4.21411371
    369,  -22.2748318,  -4.23664284
    370,  -18.0415611,  -4.26466894
    371,  -14.3774414,  -4.21217489
    372,  -12.5602102,  -4.21166754
    373,  -10.7517729,  -4.20769978
    374,  -8.94152164,  -4.20528364
    375,   -7.1139884,  -4.19587708
    376,  -5.27287436,  -4.16376972
    377,  -3.35418224,   -4.1230197
    378,   6.24993896,  -4.14016151
    379,   8.03750134,  -4.18827248
    380,   9.84972954,   -4.1911602
    381,   11.6580858,  -4.20021868
    382,   13.4686985,  -4.20880699
    383,   15.2927561,  -4.21196222
    384,   17.1209354,  -4.23374176
    385,    18.822279,  -4.39535189
    386,   21.3529816,  -4.26723862
    387,   23.1882439,  -4.21715879
    388,   25.0193329,  -4.21189117
    389,   26.8551445,  -4.18761921
    390,    28.793808,   -4.1698246
    391,   21.3547039,   4.27575541
    392,   18.8256168,   4.39213562
    393,   13.4678354,   4.20972633
    394,   11.6560001,   4.20444632
    395,   9.84873104,   4.19814348
    396,   8.04015064,   4.18784094
    397,    6.2099638,   4.16734886
    398,   4.33179283,   4.14592314
    399,   2.44842505,    4.1996007
    400,  -3.51182938,    4.1783638
    401,  -5.30711842,   4.17774677
    402,  -7.13554049,   4.20111132
    403,  -8.94693661,   4.20587254
    404,  -10.7521849,   4.20523643
    405,  -12.5600538,   4.20970964
    406,  -14.3770742,   4.21205711
    407,  -16.2043648,   4.21720695
    408,  -18.0396843,   4.27383852
    409,  -19.6949692,   4.16273355
    410,  -20.5701256,   4.39294815
    411,  -22.2712708,    4.2264204
    412,  -24.1042004,     4.211689
    413,   -25.934391,   4.20165396
    414,  -27.8086414,   4.16232395
    415,  -21.3546982,  -4.27561283
    416,  -18.8255806,  -4.39175415
    417,  -13.4671259,  -4.21144533
    418,  -11.6551285,  -4.20829105
    419,  -9.84685802,   -4.2048955
    420,  -8.02935982,   -4.2014327
    421,  -6.19995737,  -4.18396187
    422,  -4.32894659,  -4.14460278
    423,  -2.44801903,  -4.19910908
    424,   3.54068637,  -4.35167837
    425,    5.2994833,  -4.11575794
    426,   7.14573812,  -4.19182014
    427,   8.94322872,  -4.18723917
    428,   10.7545586,  -4.19363308
    429,   12.5624666,  -4.20311117
    430,   14.3783531,  -4.20865011
    431,   16.2049065,  -4.21559858
    432,   18.0399036,  -4.27301598
    433,   19.6951141,  -4.16209555
    434,   20.5702076,  -4.39257622
    435,   22.2713394,   -4.2262969
    436,   24.1042233,   -4.2116189
    437,   25.9343853,  -4.20161343
    438,   27.8086338,  -4.16230869
    439,   4.12517929,   2.47722316
    440,   1.76948631,  -4.32477856
    441,  -4.71088982,     1.535815
    442,     4.514431,   1.59492254
    443,  -4.69970131,  -1.54228818
    444,   4.51329231,  -1.61663592
    445,   -1.7311455,  -4.34053946
    446,   -4.7499547, -0.479005814
    447,  -1.75479877,   4.32010651
    448,   1.73122668,   4.34063768
    449,  -4.74898529,  0.474215806
    450,   4.81713295,  0.581123173
    451,  -4.20985174,   2.49437022
    452,   4.84362507, -0.564003229
    453,   -29.276638,  -3.49051952
    454,    29.276638,   3.49052072
    455,   29.2233734,  -2.75159359
    456,   29.0795116, -0.996243834
    457,  -29.0795326,  0.996256292
    458,  -29.2233829,    2.7516017
    459,    29.078413,  0.999236643
    460,    29.169733,   1.89931047
    461,  -29.0784264, -0.999228776
    462,  -29.1697407,  -1.89930558
    463,  -29.2784767,   3.49137092
    464,  -29.1718159,   1.89844882
    465,  -28.9288807, -0.00303852139
    466,  -29.2247353,  -2.75122309
    467,   29.2784729,  -3.49136496
    468,   29.1718006,  -1.89843631
    469,   28.9288559, 0.00305146538
    470,   29.2247334,   2.75122571
    471,   4.07088757,   -2.4995513
    472,  -4.16471243,  -2.47613168
    473,  -4.78042507,   3.34534168
    474,  -4.71637011,  -3.32004738
    475,   27.3139725,   3.34188652
    476,   23.5766468,   3.41910768
    477,  -27.3139782,  -3.34187508
    478,  -23.5766506,  -3.41904187
    479,  -17.7055893,  -3.43892884
    480,   17.7058678,   3.44079041
    481,   25.4302921,   3.40618801
    482,  -25.4302959,  -3.40616083
    483,   -21.675293,   3.44673324
    484,   21.6754742,  -3.44593406
    485,   21.6789627,   3.45975137
    486,   -21.678957,  -3.45916986
    487,  -17.7031384,   3.45399547
    488,   17.7038765,  -3.45062947
    489,  -3.10877514,   3.44963479
    490,  -23.5753002,   3.41311383
    491,   23.5753536,  -3.41292906
    492,   4.66751671,  -3.28942943
    493,   4.70310259,   3.30279732
    494,   15.8162384,   3.41042662
    495,  -15.8156385,  -3.40992522
    496,  -15.8150625,   3.41611123
    497,   15.8165665,  -3.41098928
    498,  -25.4311714,   3.39869618
    499,   25.4311562,  -3.39859462
    500,   13.9636555,   3.41146755
    501,  -13.9622326,  -3.41428089
    502,  -13.9617281,   3.41388798
    503,    13.965251,   -3.4053185
    504,  -6.65378523,   3.39096951
    505,   6.72296286,  -3.43560481
    506,  -6.60699272,   -3.3915658
    507,     6.627388,   3.32223201
    508,  -27.3159313,   3.33936763
    509,   27.3159122,  -3.33932495
    510,   12.1277466,    3.4033668
    511,  -12.1256828,  -3.41124701
    512,  -12.1266937,   3.40814686
    513,   12.1318893,  -3.39286304
    514,  -8.48257446,   3.40566778
    515,   8.46988773,  -3.36163354
    516,  -8.45757294,  -3.39467263
    517,   8.47958565,   3.37054992
    518,   4.95080042,  -2.41075683
    519,   10.3025646,   3.39000773
    520,  -10.2995615,  -3.40356874
    521,  -10.3036213,   3.40159059
    522,   10.3056393,  -3.37397051
    523,  -5.18696737,   -2.5176363
    524,  -5.22663879,   2.51140642
    525,  -5.60409164, -0.919906974
    526,  -5.57185936,  0.900880337
    527,   28.5362244,   2.40189362
    528,   -28.536232,  -2.40188575
    529,  -28.5378323,   2.40055943
    530,   28.5378113,  -2.40053558
    531,    5.1105361,    2.4264648
    532,  -19.6879349,   3.28533721
    533,   19.6882248,  -3.28289747
    534,    19.693882,   3.28544974
    535,  -19.6938267,  -3.28366947
    536,  -28.1799984,  0.667711616
    537,   28.1799545, -0.667680204
    538,   28.1808205,  0.682430148
    539,  -28.1808548, -0.682407916
    540,   27.3838348, -0.373311609
    541,   -27.383894,  0.373367131
    542,  -27.3896065, -0.401483536
    543,   27.3895588,  0.401528746
    544,  -22.0915165,   2.59853172
    545,   22.0917263,  -2.59629869
    546,   22.0944862,   2.61240673
    547,  -22.0944748,  -2.61043072
    548,   -6.4521265,  -1.27714682
    549,   -6.2715764,   1.19686425
    550,  -17.2803421,    2.6078043
    551,  -17.2819576,   -2.5832293
    552,   17.2826519,    2.5957396
    553,   17.2817688,  -2.59247208
    554,  -23.9937668,   2.58641124
    555,    23.993784,  -2.58614039
    556,   23.9935093,   2.59295607
    557,  -23.9935207,  -2.59283161
    558,  -15.3976822,   2.59480691
    559,  -15.3980942,  -2.58754849
    560,   15.3994617,   2.59441519
    561,   15.4007626,  -2.57959962
    562,   27.7325077,   2.48705959
    563,  -27.7325191,  -2.48704457
    564,  -27.7361126,   2.48071384
    565,   27.7360821,  -2.48066807
    566,  -25.8611984,   2.56394625
    567,   25.8611546,  -2.56382322
    568,    25.858017,    2.5833776
    569,  -25.8580284,   -2.5833385
    570,  -13.5299425,    2.5906713
    571,  -13.5297041,  -2.60118771
    572,   13.5332403,   2.59409595
    573,    13.537694,  -2.57841229
    574,  -7.09833288,   2.60135007
    575,  -7.01035452,  -2.60905766
    576,   7.06932259,   2.46045923
    577,   6.90494299,  -2.40182686
    578,  -11.6837835,   2.58162093
    579,  -11.6795254,  -2.59640145
    580,   11.6847887,   2.57765412
    581,   11.6925001,   -2.5629952
    582,  -8.92762184,   2.58892298
    583,  -8.89862537,  -2.56904864
    584,   8.92545891,   2.54358172
    585,    8.9219017,  -2.53564191
    586,  -9.84736633,   2.57950807
    587,  -9.83287716,  -2.58000255
    588,   9.84342861,   2.55772686
    589,  -6.35391903,  0.463965088
    590,  -6.39415503, -0.417857915
    591,   10.7700071,  -2.54724288
    592,   9.84677219,  -2.53820682
    593,     20.15415,  -2.57885575
    594,  -20.1538219,   2.58855033
    595,    20.159214,   2.59537768
    596,  -20.1591492,  -2.58633184
    597,  -19.2187462,   -2.5748198
    598,   19.2189598,   2.58749771
    599,  -19.2138214,   2.59199357
    600,   19.2143745,  -2.57836938
    601,   10.7630386,   2.56579733
    602,  -10.7570562,  -2.58721018
    603,  -10.7661982,   2.57426763
    604,   -6.1269927,  -2.61279416
    605,   7.99007702,  -2.51854396
    606,   8.00343132,   2.50970531
    607,  -7.93842936,  -2.56255412
    608,  -8.00934219,    2.5967772
    609,   12.6138783,  -2.56925416
    610,   12.6072426,   2.58211493
    611,  -12.6014709,  -2.59681106
    612,  -12.6039562,   2.58069587
    613,   6.09991407,   2.40921283
    614,  -26.7936058,  -2.55307889
    615,   26.7935925,   2.55310512
    616,   26.7974529,  -2.53887224
    617,  -26.7974911,   2.53895092
    618,   27.5480862,   1.08688605
    619,  -27.5481186,   -1.0868541
    620,   -27.547205,   1.06451309
    621,   27.5471535,  -1.06445539
    622,   -6.1845932,   2.57495332
    623,   14.4658937,  -2.57444286
    624,   14.4627829,   2.59284306
    625,  -14.4604683,  -2.59238744
    626,  -14.4601498,   2.58785915
    627,  -24.9305267,  -2.58746266
    628,   24.9305134,    2.5875392
    629,   24.9326038,  -2.57082367
    630,  -24.9326305,   2.57100892
    631,  -26.7973022,  0.956248701
    632,   26.7972374, -0.956160426
    633,  -25.3838329,   1.72179651
    634,   25.3837719,  -1.72161293
    635,  -14.0186157,  -1.75622809
    636,   14.0247202,   1.75469661
    637,  -6.64278984,    1.8290993
    638,  -7.07681274, -0.832673252
    639,   -7.0050478,   1.04792213
    640,  -12.1521063,  -1.76108801
    641,   12.1612186,   1.73633718
    642,  -8.44571972,   1.76209319
    643,  -10.2950792,  -1.74351656
    644,   8.46436977,  -1.71293759
    645,   10.3040009,   1.72000575
    646,    27.230444,  -1.72943699
    647,  -27.2304916,   1.72950733
    648,   10.3103857,  -1.70042813
    649,  -23.0514393,    2.5886879
    650,   23.0515366,  -2.58765888
    651,   21.1225395,   2.62528563
    652,    23.052906,   2.59454536
    653,  -21.1225033,  -2.61954379
    654,  -23.0529079,  -2.59369683
    655,  -18.2495689,   2.62030149
    656,  -16.3320141,   2.59616995
    657,  -16.3325958,  -2.57770467
    658,   16.3335533,   2.59071159
    659,   16.3340607,  -2.57821107
    660,   18.2505112,  -2.60340381
    661,   -21.118454,   2.61099315
    662,   21.1187172,  -2.60486078
    663,   18.2533264,   2.61026907
    664,   -18.252861,  -2.59494543
    665,   6.57791328,   1.47985089
    666,    6.9575572,  -1.09479487
    667,   8.44992542,    1.6774013
    668,   12.1686726,  -1.72045374
    669,   -10.306366,   1.72821593
    670,  -8.38604069,  -1.70794189
    671,  -12.1563959,   1.72612369
    672,   14.0283203,  -1.72297287
    673,  -14.0191193,   1.73715854
    674,  -19.6811371,   1.74547672
    675,   19.6850643,   1.75024414
    676,  -19.6848278,  -1.72371113
    677,    19.681633,  -1.71821344
    678,  -25.3798599,  -1.75186384
    679,   25.3798275,   1.75195682
    680,  -27.2244549,   -1.7493068
    681,   27.2244301,   1.74933743
    682,   15.8990231,  -1.71796191
    683,   15.8976746,   1.75467587
    684,  -15.8957262,  -1.72936118
    685,  -15.8956137,   1.74957299
    686,   21.5774841,    -1.734954
    687,  -21.5772381,   1.74410844
    688,   7.12082005,   0.80140996
    689,   17.7881603,   1.75182807
    690,  -17.7872143,  -1.71888065
    691,   -23.492466,  -1.74240792
    692,   23.4924526,   1.74333322
    693,   23.4926586,  -1.73715937
    694,  -23.4926147,   1.73823881
    695,  -7.92554331,  0.933192611
    696,   25.8790169, -0.871251941
    697,  -25.8790894,  0.871395946
    698,   16.3865337, -0.845847428
    699,   16.3859234,  0.898287058
    700,   7.96460342, -0.915361285
    701,  -16.3836441, -0.856008351
    702,  -16.3835659,  0.891104102
    703,   9.84020329, -0.852337539
    704,   9.83698368,  0.860734046
    705,   7.97055674,  0.813204944
    706,   12.6434469, -0.860692799
    707,  -25.8733749, -0.909329236
    708,   25.8733234,  0.909425735
    709,  -13.5638838,  0.862777054
    710,  -13.5630007, -0.897678733
    711,  -10.7693253,  0.858712077
    712,   13.5734797,   0.89208436
    713,   20.1482086, -0.849903584
    714,  -9.82601452, -0.874677181
    715,  -20.1478138,  0.882602036
    716,   20.1499653,  0.895018339
    717,  -20.1497135, -0.862677395
    718,   13.5758915, -0.855448961
    719,  -11.6978779,  0.853689075
    720,  -11.6945696, -0.900432587
    721,  -19.2120285, -0.850382507
    722,   19.2125893,  0.891435564
    723,  -19.2103138,  0.889418662
    724,   19.2110558, -0.847815752
    725,  -8.88767052,  0.892647564
    726,  -8.86894608, -0.851679802
    727,   12.6384602,  0.881122351
    728,    11.704999,  0.874609113
    729,   -7.8910923, -0.832142949
    730,   8.90152836,  0.838678241
    731,  -9.83305454,  0.869698703
    732,   10.7766199, -0.852102339
    733,   11.7093258, -0.855134606
    734,  -10.7625628,  -0.88721174
    735,   8.90414906, -0.868819237
    736,   10.7716007,  0.868451834
    737,   14.5104218, -0.849779963
    738,  -12.6261559, -0.898097157
    739,   -12.627902,  0.854442358
    740,   14.5086937,   0.89654243
    741,  -14.5019064, -0.883353591
    742,  -14.5021734,  0.870567203
    743,  -15.4407368,  0.879552662
    744,  -24.9124069, -0.888400674
    745,   24.9123592,   0.88863349
    746,  -15.4407215, -0.867819607
    747,   24.9144783, -0.861972272
    748,  -24.9145355,  0.862267315
    749,   15.4446106,  0.896604657
    750,    15.445714, -0.846097469
    751,   17.7870235,  -1.72426677
    752,  -17.7855206,   1.75927675
    753,  -21.5796814,  -1.74982846
    754,   21.5797405,   1.75867605
    755,    -6.535532,  -1.99901652
    756,   26.8027916,  0.989412785
    757,  -26.8028336, -0.989356577
    758,    25.415247, 0.0164997596
    759,  -25.4153061, -0.0162798017
    760,  -14.0350294, -0.0124511039
    761,    14.044816, 0.0214206669
    762,  -12.1632891, -0.0236580111
    763,  -10.2966328, -0.00860931817
    764,  -15.9150076, 0.0119075691
    765,    15.918767, 0.0274213292
    766,    12.175808, 0.0106408885
    767,   10.3058195, 0.00536581222
    768,   8.41979599, -0.0310886949
    769,  -19.6794224, 0.0153907202
    770,   19.6799374, 0.0233241171
    771,  -22.9971256,  0.874577165
    772,      22.9972, -0.871332645
    773,    22.997282,  0.879961729
    774,  -22.9972649,  -0.87682569
    775,  -17.3248863,  0.895340085
    776,  -17.3254623, -0.847795725
    777,   17.3270321,  0.893897116
    778,   17.3268719, -0.847584844
    779,  -21.0896111,  0.876687169
    780,   21.0913029,  0.891285062
    781,   -21.091156,  -0.87273097
    782,   21.0898743, -0.857907116
    783,  -18.2675419,  0.893498063
    784,  -18.2687702, -0.846346378
    785,   18.2697849,  0.890606225
    786,    18.268816, -0.848325253
    787,   -8.3711338, 0.0341961719
    788,  -23.9573078,  0.866951168
    789,   23.9572983, -0.865834296
    790,   23.9565735,  0.879517138
    791,  -23.9565964, -0.878476858
    792,    22.042387, -0.865137696
    793,  -22.0422192,  0.874445498
    794,   22.0431728,  0.884356916
    795,  -22.0430889,    -0.875193
    796,  -23.4749165, -0.00381458271
    797,   23.4749298, 0.00630357536
    798,  -17.7985821, 0.0245956089
    799,   17.8000889, 0.0243688878
    800,   21.5649014, 0.0136272814
    801,  -21.5647373, 0.00172690675
    802,   5.91580772,  -0.72921133
*Element, type=CPS3
   1, 337,  69, 296
   2, 440, 337, 235
   3,  10, 234, 294
   4, 294, 234,  68
   5, 445, 233,   9
   6, 423, 232, 377
   7, 474, 376, 422
   8, 506, 375, 421
   9, 516, 374, 420
  10, 520, 373, 419
  11, 418, 372, 287
  12, 417, 371, 286
  13, 336, 334, 285
  14, 479, 332, 137
  15, 331, 139, 320
  16, 415, 369, 281
  17, 330, 280,  56
  18, 329, 279,  55
  19, 328, 278,  54
  20, 453, 276, 327
  21, 327, 277,  53
  22, 471, 236, 116
  23, 337, 116,  11
  24, 338,  70, 297
  25, 518, 492, 117
  26, 452,  13, 318
  27, 688, 115, 114
  28, 705, 667, 212
  29, 704, 645, 213
  30, 728, 727, 641
  31, 712, 636, 215
  32, 749, 699, 683
  33, 799, 785, 777
  34, 722, 716, 675
  35, 800, 794, 780
  36, 773, 692, 220
  37, 745, 679, 221
  38, 543, 103, 538
  39, 538, 459, 223
  40, 460, 459,  88
  41, 470, 460, 315
  42, 527, 460, 470
  43, 454, 316, 321
  44, 339, 238, 322
  45, 322, 238,  15
  46, 340,  15, 239
  47, 323, 239,  16
  48, 628, 481, 208
  49, 708, 222, 679
  50, 377, 232, 130
  51, 472,   8, 231
  52, 525, 443, 446
  53, 589, 526, 549
  54, 582, 514, 186
  55, 521, 343, 404
  56, 405, 342, 188
  57, 512, 341, 405
  58, 342,  36, 262
  59, 502, 342, 406
  60, 626, 502, 189
  61, 742, 673, 175
  62, 741, 635, 710
  63, 625, 501, 571
  64, 571, 501, 135
  65, 611, 511, 579
  66, 579, 511, 134
  67, 720, 640, 147
  68, 719, 173, 671
  69, 578, 187, 512
  70, 612, 512, 188
  71, 570, 188, 502
  72, 449, 446, 230
  73, 526, 441, 170
  74, 637, 170, 622
  75, 403, 357, 259
  76, 404, 343, 260
  77, 526, 449, 441
  78, 524, 451, 473
  79, 344,  31, 257
  80, 401, 344, 257
  81, 345,  32, 258
  82, 402, 345, 258
  83, 622, 504, 574
  84, 524, 473, 184
  85, 447, 227, 255
  86, 227, 226, 254
  87, 448,   3, 225
  88, 448, 253,   3
  89, 346,   2, 197
  90, 399, 346, 252
  91, 531, 493, 439
  92, 665, 212, 576
  93, 613, 507, 198
  94, 576, 199, 507
  95, 606, 584, 517
  96, 730, 213, 667
  97,   2, 224, 197
  98, 531, 442, 211
  99, 450, 211, 442
 100, 321, 316, 237
 101, 347,  16, 240
 102, 324, 240,  17
 103, 652, 476, 207
 104, 790, 692, 773
 105, 348,  17, 241
 106, 391, 348, 241
 107, 754, 546, 651
 108, 794, 220, 754
 109, 319,  18, 242
 110, 325, 206, 319
 111, 675, 595, 598
 112, 716, 219, 675
 113, 349,  19, 244
 114, 480, 326, 204
 115, 552, 480, 204
 116, 785, 689, 777
 117, 333, 326,  20
 118, 335, 333, 245
 119, 560, 494, 203
 120, 699, 217, 683
 121, 350, 335,  21
 122, 393, 350, 246
 123, 572, 500, 202
 124, 740, 636, 712
 125, 351,  22, 247
 126, 394, 351, 247
 127, 580, 510, 201
 128, 727, 215, 641
 129, 352,  23, 248
 130, 519, 352, 395
 131, 588, 519, 200
 132, 736, 214, 645
 133, 353,  24, 249
 134, 517, 353, 396
 135, 584, 200, 517
 136, 354,  25, 250
 137, 507, 354, 397
 138, 507, 397, 198
 139, 493, 355, 398
 140, 400, 356, 256
 141, 357,  33, 259
 142, 358,  37, 263
 143, 496, 358, 407
 144, 656, 496, 190
 145, 702, 685, 176
 146, 701, 150, 684
 147, 657, 495, 559
 148, 559, 495, 136
 149, 359,  38, 264
 150, 487, 359, 408
 151, 655, 487, 191
 152, 798, 775, 783
 153, 784, 690, 776
 154, 664, 479, 551
 155, 551, 479, 137
 156, 360,  39, 265
 157, 409, 191, 360
 158, 674, 599, 594
 159, 715, 674, 178
 160, 717, 152, 676
 161, 597, 535, 138
 162, 676, 596, 597
 163, 361,  40, 267
 164, 411, 361, 267
 165, 544, 483, 193
 166, 801, 779, 793
 167, 795, 153, 753
 168, 547, 140, 486
 169, 753, 547, 653
 170, 362,  41, 268
 171, 412, 362, 268
 172, 554, 490, 194
 173, 788, 694, 180
 174, 791, 691, 774
 175, 557, 141, 478
 176, 654, 478, 140
 177, 363,  42, 269
 178, 413, 363, 269
 179, 566, 498, 195
 180, 697, 633, 181
 181, 707, 155, 678
 182, 569, 142, 482
 183, 627, 482, 141
 184, 364,  43, 270
 185, 414, 364, 270
 186, 564, 508, 196
 187, 541, 536, 169
 188, 619, 539, 156
 189, 563, 528, 143
 190, 614, 563, 477
 191, 365,  44, 271
 192, 463, 272,  47
 193, 529, 458, 464
 194, 536, 457, 465
 195, 462, 461,  50
 196, 528, 462, 466
 197, 466, 462, 275
 198, 366,  53, 278
 199, 367,  54, 279
 200, 368,  55, 280
 201, 369,  56, 281
 202, 320,  57, 282
 203, 370,  58, 284
 204, 334, 332,  59
 205, 371, 336,  60
 206, 372,  61, 287
 207, 373,  62, 288
 208, 374,  63, 289
 209, 375,  64, 290
 210, 376,  65, 291
 211, 377,  66, 292
 212, 424, 338, 116
 213, 378,  71, 298
 214, 577, 505, 118
 215, 666, 114, 115
 216, 666, 115, 802
 217, 425, 378, 117
 218, 379,  72, 299
 219, 585, 515, 119
 220, 735, 700, 644
 221, 700,  91, 644
 222, 426, 379, 118
 223, 428, 381, 120
 224, 591, 522, 120
 225, 732, 703, 648
 226, 703,  92, 648
 227, 522, 380, 428
 228, 429, 382, 121
 229, 609, 513, 121
 230, 706, 668,  94
 231, 733,  93, 668
 232, 513, 381, 429
 233, 430, 383, 122
 234, 623, 503, 122
 235, 737, 672,  95
 236, 718,  94, 672
 237, 503, 382, 430
 238, 431, 384, 123
 239, 659, 497, 123
 240, 698, 682,  96
 241, 750,  95, 682
 242, 497, 383, 431
 243, 432, 385, 124
 244, 660, 488, 124
 245, 799, 778, 786
 246, 786, 778, 751
 247, 488, 384, 432
 248, 433, 385, 305
 249, 677, 600, 593
 250, 713, 677,  98
 251, 724,  97, 677
 252, 433, 124, 385
 253, 386,  79, 307
 254, 545, 484, 126
 255, 800, 782, 792
 256, 792, 782, 686
 257, 434, 386, 125
 258, 387,  80, 308
 259, 555, 491, 127
 260, 789, 693, 100
 261, 772,  99, 693
 262, 435, 387, 126
 263, 388,  81, 309
 264, 567, 499, 128
 265, 696, 634, 101
 266, 747, 634, 696
 267, 436, 388, 127
 268, 389,  82, 310
 269, 565, 509, 129
 270, 540, 537, 103
 271, 621, 537, 540
 272, 437, 389, 128
 273, 390,  83, 311
 274, 467, 312,  85
 275, 468, 455, 313
 276, 530, 455, 468
 277, 456,  86, 314
 278, 537, 456, 469
 279, 452, 444,  90
 280, 518, 471, 492
 281, 577, 117, 505
 282, 605, 118, 515
 283, 592, 119, 522
 284, 581, 120, 513
 285, 573, 121, 503
 286, 561, 122, 497
 287, 553, 123, 488
 288, 533, 124, 433
 289, 662, 484, 545
 290, 650, 491, 555
 291, 629, 499, 567
 292, 616, 128, 509
 293, 523, 474, 472
 294, 523, 472, 443
 295, 755, 604, 144
 296, 607, 516, 132
 297, 587, 520, 133
 298, 602, 134, 520
 299, 575, 132, 506
 300, 583, 133, 516
 301, 590, 525, 157
 302, 548, 144, 525
 303, 729, 670, 145
 304, 714, 643, 146
 305, 734, 147, 643
 306, 726, 146, 670
 307, 710, 635, 148
 308, 738, 640, 720
 309, 695, 639, 171
 310, 725, 695, 642
 311, 731, 172, 669
 312, 711, 669, 173
 313, 709, 174, 673
 314, 739, 671, 174
 315, 746, 701, 684
 316, 798, 784, 776
 317, 721, 717, 676
 318, 801, 795, 781
 319, 774, 691, 153
 320, 744, 678, 154
 321, 542, 169, 539
 322, 539, 465, 461
 323, 549, 526, 170
 324, 586, 186, 521
 325, 603, 586, 521
 326, 743, 685, 702
 327, 783, 775, 752
 328, 723, 177, 674
 329, 793, 779, 687
 330, 771, 179, 694
 331, 748, 633, 697
 332, 620, 536, 541
 333, 457,  48, 274
 334, 608, 514, 582
 335, 558, 189, 496
 336, 550, 190, 487
 337, 532, 191, 409
 338, 661, 483, 544
 339, 649, 490, 554
 340, 630, 498, 566
 341, 617, 195, 508
 342, 464, 458, 273
 343, 601, 201, 519
 344, 610, 510, 580
 345, 624, 500, 572
 346, 658, 494, 560
 347, 663, 480, 552
 348, 534, 206, 325
 349, 546, 207, 485
 350, 556, 208, 476
 351, 568, 209, 481
 352, 615, 562, 475
 353, 562, 527, 210
 354, 489, 356, 400
 355, 442, 439,   1
 356, 618, 538, 223
 357, 489,   5, 228
 358, 439, 224,   1
 359, 399,   2, 346
 360, 226,   3,  29
 361, 254, 226,  29
 362, 447, 356,   4
 363, 451,   5, 183
 364, 449, 230,   6
 365, 443, 231,   7
 366, 232,   8, 130
 367, 445, 293, 233
 368, 234, 233,  68
 369, 440,  10, 295
 370, 236,  11, 116
 371, 339, 321,  14
 372, 340, 322,  15
 373, 347, 323,  16
 374, 348, 324,  17
 375, 391,  18, 319
 376, 392, 325, 243
 377, 392, 243,  19
 378, 326, 244,  20
 379, 335, 245,  21
 380, 393, 246,  22
 381, 394, 247,  23
 382, 395,  24, 353
 383, 396,  25, 354
 384, 397,  26, 355
 385, 398,  27, 346
 386, 448, 399,  28
 387, 253,  29,   3
 388, 254, 255, 227
 389, 447, 255,  30
 390, 400, 256,  31
 391, 401, 257,  32
 392, 402, 258,  33
 393, 403,  34, 343
 394, 404,  35, 341
 395, 405,  36, 342
 396, 406,  37, 358
 397, 407,  38, 359
 398, 408,  39, 360
 399, 410, 409, 266
 400, 410, 266,  40
 401, 411, 267,  41
 402, 412, 268,  42
 403, 413, 269,  43
 404, 414, 270,  44
 405, 271,  46, 272
 406, 463, 458, 196
 407, 464, 273,  48
 408, 465, 274,  49
 409, 466,  51, 453
 410, 276,  52, 277
 411, 366, 327,  53
 412, 367, 328,  54
 413, 368, 329,  55
 414, 369, 330,  56
 415, 415,  57, 320
 416, 416, 331, 283
 417, 416, 283,  58
 418, 332, 284,  59
 419, 336, 285,  60
 420, 417, 286,  61
 421, 418, 287,  62
 422, 419,  63, 374
 423, 420,  64, 375
 424, 421,  65, 376
 425, 422,  66, 377
 426, 445, 423,  67
 427, 293,  68, 233
 428, 294, 295,  10
 429, 440, 295,  69
 430, 424, 296,  70
 431, 425, 297,  71
 432, 426, 298,  72
 433, 427,  73, 380
 434, 428,  74, 381
 435, 429,  75, 382
 436, 430,  76, 383
 437, 431,  77, 384
 438, 432,  78, 385
 439, 434, 433, 306
 440, 434, 306,  79
 441, 435, 307,  80
 442, 436, 308,  81
 443, 437, 309,  82
 444, 438, 310,  83
 445, 311,  84, 312
 446, 467, 455, 129
 447, 468, 313,  86
 448, 469, 314,  87
 449, 470,  89, 454
 450, 316,  45, 237
 451, 452, 450,  13
 452, 444, 318,  12
 453, 325, 319, 242
 454, 485, 348, 391
 455, 331, 320, 282
 456, 486, 369, 415
 457, 321, 237,  14
 458, 454, 321, 210
 459, 475, 322, 209
 460, 475, 339, 322
 461, 481, 323, 208
 462, 481, 340, 323
 463, 476, 324, 207
 464, 476, 347, 324
 465, 325, 242, 243
 466, 534, 325, 205
 467, 333,  20, 245
 468, 480, 349, 326
 469, 453, 327, 143
 470, 327, 276, 277
 471, 477, 328, 142
 472, 477, 366, 328
 473, 482, 329, 141
 474, 482, 367, 329
 475, 478, 330, 140
 476, 478, 368, 330
 477, 331, 282, 283
 478, 535, 331, 138
 479, 334,  59, 285
 480, 479, 370, 332
 481, 494, 333, 335
 482, 333, 204, 326
 483, 495, 334, 336
 484, 334, 137, 332
 485, 350,  21, 246
 486, 494, 335, 203
 487, 371,  60, 286
 488, 495, 336, 136
 489, 424, 337, 296
 490, 337,  11, 235
 491, 425, 338, 297
 492, 492, 338, 425
 493, 339, 210, 321
 494, 339,  14, 238
 495, 340, 239, 323
 496, 340, 209, 322
 497, 521, 404, 187
 498, 341,  35, 261
 499, 406, 358, 189
 500, 512, 405, 188
 501, 514, 403, 186
 502, 343,  34, 260
 503, 473, 344, 401
 504, 400, 344, 183
 505, 504, 345, 402
 506, 401, 345, 184
 507, 493, 398, 197
 508, 346,  27, 252
 509, 347, 240, 324
 510, 347, 208, 323
 511, 391, 241,  18
 512, 348, 207, 324
 513, 392, 349, 205
 514, 349, 244, 326
 515, 500, 350, 393
 516, 350, 203, 335
 517, 510, 351, 394
 518, 393, 351, 202
 519, 395, 353, 200
 520, 394, 352, 201
 521, 396, 354, 199
 522, 519, 395, 200
 523, 397, 355, 198
 524, 517, 396, 199
 525, 355,  26, 251
 526, 398, 355, 251
 527, 356, 228,   4
 528, 356,  30, 256
 529, 514, 357, 403
 530, 402, 357, 185
 531, 407, 359, 190
 532, 502, 406, 189
 533, 408, 360, 191
 534, 496, 407, 190
 535, 409, 360, 265
 536, 487, 408, 191
 537, 483, 361, 411
 538, 410, 361, 192
 539, 490, 362, 412
 540, 411, 362, 193
 541, 498, 363, 413
 542, 412, 363, 194
 543, 508, 364, 414
 544, 413, 364, 195
 545, 414, 365, 196
 546, 365, 271, 272
 547, 366, 278, 328
 548, 366, 143, 327
 549, 367, 279, 329
 550, 367, 142, 328
 551, 368, 280, 330
 552, 368, 141, 329
 553, 415, 281,  57
 554, 369, 140, 330
 555, 416, 370, 138
 556, 370, 284, 332
 557, 501, 371, 417
 558, 371, 136, 336
 559, 511, 372, 418
 560, 417, 372, 135
 561, 419, 374, 133
 562, 418, 373, 134
 563, 420, 375, 132
 564, 520, 419, 133
 565, 421, 376, 131
 566, 516, 420, 132
 567, 422, 377, 130
 568, 506, 421, 131
 569, 423, 377, 292
 570, 474, 422, 130
 571, 426, 378, 298
 572, 505, 378, 426
 573, 427, 380, 119
 574, 515, 379, 427
 575, 515, 427, 119
 576, 380,  73, 300
 577, 522, 428, 120
 578, 381,  74, 301
 579, 513, 429, 121
 580, 382,  75, 302
 581, 503, 430, 122
 582, 383,  76, 303
 583, 497, 431, 123
 584, 384,  77, 304
 585, 488, 432, 124
 586, 385,  78, 305
 587, 435, 386, 307
 588, 484, 386, 435
 589, 436, 387, 308
 590, 491, 387, 436
 591, 437, 388, 309
 592, 499, 388, 437
 593, 438, 389, 310
 594, 509, 389, 438
 595, 438, 390, 129
 596, 390, 311, 312
 597, 391, 319, 206
 598, 485, 391, 206
 599, 392,  19, 349
 600, 392, 205, 325
 601, 393,  22, 351
 602, 500, 393, 202
 603, 394,  23, 352
 604, 510, 394, 201
 605, 395, 352, 248
 606, 395, 248,  24
 607, 396, 353, 249
 608, 396, 249,  25
 609, 397, 354, 250
 610, 397, 250,  26
 611, 398, 251,  27
 612, 398, 346, 197
 613, 399, 252,  28
 614, 399, 225,   2
 615, 400,  31, 344
 616, 489, 400, 183
 617, 401,  32, 345
 618, 473, 401, 184
 619, 402,  33, 357
 620, 504, 402, 185
 621, 403, 259,  34
 622, 403, 343, 186
 623, 404, 260,  35
 624, 404, 341, 187
 625, 405, 341, 261
 626, 405, 261,  36
 627, 406, 342, 262
 628, 406, 262,  37
 629, 407, 358, 263
 630, 407, 263,  38
 631, 408, 359, 264
 632, 408, 264,  39
 633, 409, 265, 266
 634, 532, 409, 192
 635, 410,  40, 361
 636, 410, 192, 409
 637, 411,  41, 362
 638, 483, 411, 193
 639, 412,  42, 363
 640, 490, 412, 194
 641, 413,  43, 364
 642, 498, 413, 195
 643, 414,  44, 365
 644, 508, 414, 196
 645, 415, 320, 139
 646, 486, 415, 139
 647, 416,  58, 370
 648, 416, 138, 331
 649, 417,  61, 372
 650, 501, 417, 135
 651, 418,  62, 373
 652, 511, 418, 134
 653, 419, 373, 288
 654, 419, 288,  63
 655, 420, 374, 289
 656, 420, 289,  64
 657, 421, 375, 290
 658, 421, 290,  65
 659, 422, 376, 291
 660, 422, 291,  66
 661, 423, 292,  67
 662, 423,   9, 232
 663, 424,  70, 338
 664, 424, 116, 337
 665, 425,  71, 378
 666, 492, 425, 117
 667, 426,  72, 379
 668, 505, 426, 118
 669, 427, 379, 299
 670, 427, 299,  73
 671, 428, 380, 300
 672, 428, 300,  74
 673, 429, 381, 301
 674, 429, 301,  75
 675, 430, 382, 302
 676, 430, 302,  76
 677, 431, 383, 303
 678, 431, 303,  77
 679, 432, 384, 304
 680, 432, 304,  78
 681, 433, 305, 306
 682, 533, 433, 125
 683, 434,  79, 386
 684, 434, 125, 433
 685, 435,  80, 387
 686, 484, 435, 126
 687, 436,  81, 388
 688, 491, 436, 127
 689, 437,  82, 389
 690, 499, 437, 128
 691, 438,  83, 390
 692, 509, 438, 129
 693, 531, 198, 493
 694, 439, 197, 224
 695, 440,  69, 337
 696, 440, 235,  10
 697, 441,   6, 229
 698, 451, 441, 229
 699, 442,   1, 317
 700, 450, 442, 317
 701, 446, 443,   7
 702, 523, 131, 474
 703, 471, 444,  12
 704, 452,  90, 802
 705, 445,   9, 423
 706, 445,  67, 293
 707, 446,   7, 230
 708, 525, 446, 157
 709, 447,  30, 356
 710, 447,   4, 227
 711, 448, 225, 399
 712, 448,  28, 253
 713, 449, 157, 446
 714, 449,   6, 441
 715, 450, 317,  13
 716, 450, 115, 211
 717, 451, 229,   5
 718, 473, 451, 183
 719, 452, 115, 450
 720, 452, 318, 444
 721, 528, 466, 143
 722, 453,  51, 276
 723, 527, 470, 210
 724, 454,  89, 316
 725, 467, 129, 390
 726, 455,  85, 313
 727, 468, 456, 102
 728, 469, 456, 314
 729, 464, 457, 182
 730, 465, 457, 274
 731, 463, 196, 365
 732, 458,  47, 273
 733, 538, 469, 459
 734, 459,  87,  88
 735, 460, 223, 459
 736, 460,  88, 315
 737, 461,  49,  50
 738, 539, 461, 156
 739, 462, 156, 461
 740, 462,  50, 275
 741, 463, 365, 272
 742, 463,  47, 458
 743, 464,  48, 457
 744, 529, 464, 182
 745, 465,  49, 461
 746, 536, 465, 169
 747, 466, 275,  51
 748, 466, 453, 143
 749, 467, 390, 312
 750, 467,  85, 455
 751, 468,  86, 456
 752, 530, 468, 102
 753, 469,  87, 459
 754, 537, 469, 103
 755, 470, 315,  89
 756, 470, 454, 210
 757, 471,  12, 236
 758, 492, 471, 116
 759, 472, 130,   8
 760, 472, 231, 443
 761, 473, 183, 344
 762, 622, 524, 184
 763, 474, 131, 376
 764, 474, 130, 472
 765, 615, 209, 568
 766, 475, 210, 339
 767, 652, 556, 476
 768, 476, 208, 347
 769, 614, 142, 569
 770, 477, 143, 366
 771, 654, 557, 478
 772, 478, 141, 368
 773, 657, 551, 137
 774, 479, 138, 370
 775, 658, 552, 204
 776, 480, 205, 349
 777, 628, 568, 481
 778, 481, 209, 340
 779, 627, 569, 482
 780, 482, 142, 367
 781, 649, 544, 193
 782, 483, 192, 361
 783, 650, 545, 126
 784, 484, 125, 386
 785, 651, 485, 206
 786, 485, 207, 348
 787, 653, 486, 139
 788, 486, 140, 369
 789, 655, 599, 177
 790, 487, 190, 359
 791, 660, 600,  97
 792, 488, 123, 384
 793, 489, 183,   5
 794, 489, 228, 356
 795, 630, 554, 194
 796, 490, 193, 362
 797, 629, 555, 127
 798, 491, 126, 387
 799, 492, 116, 338
 800, 518, 117,  90
 801, 493, 198, 355
 802, 493, 197, 439
 803, 624, 560, 203
 804, 494, 204, 333
 805, 625, 559, 136
 806, 495, 137, 334
 807, 656, 558, 496
 808, 496, 189, 358
 809, 659, 561, 497
 810, 497, 122, 383
 811, 617, 566, 195
 812, 498, 194, 363
 813, 616, 567, 128
 814, 499, 127, 388
 815, 610, 572, 202
 816, 500, 203, 350
 817, 611, 571, 135
 818, 501, 136, 371
 819, 626, 570, 502
 820, 502, 188, 342
 821, 623, 573, 503
 822, 503, 121, 382
 823, 608, 574, 185
 824, 504, 184, 345
 825, 605, 577, 118
 826, 505, 117, 378
 827, 604, 575, 506
 828, 506, 132, 375
 829, 613, 576, 507
 830, 507, 199, 354
 831, 564, 196, 529
 832, 508, 195, 364
 833, 565, 129, 530
 834, 509, 128, 389
 835, 601, 580, 201
 836, 510, 202, 351
 837, 602, 579, 134
 838, 511, 135, 372
 839, 612, 578, 512
 840, 512, 187, 341
 841, 609, 581, 513
 842, 513, 120, 381
 843, 586, 582, 186
 844, 514, 185, 357
 845, 592, 585, 119
 846, 515, 118, 379
 847, 607, 583, 516
 848, 516, 133, 374
 849, 606, 199, 576
 850, 517, 200, 353
 851, 518,  90, 444
 852, 518, 444, 471
 853, 588, 200, 584
 854, 519, 201, 352
 855, 587, 133, 583
 856, 520, 134, 373
 857, 603, 187, 578
 858, 521, 186, 343
 859, 591, 120, 581
 860, 522, 119, 380
 861, 523, 443, 144
 862, 604, 523, 144
 863, 524, 170, 441
 864, 524, 441, 451
 865, 590, 157, 589
 866, 525, 144, 443
 867, 637, 622, 574
 868, 526, 157, 449
 869, 562, 210, 475
 870, 527, 223, 460
 871, 563, 143, 477
 872, 528, 156, 462
 873, 564, 529, 182
 874, 529, 196, 458
 875, 565, 530, 102
 876, 530, 129, 455
 877, 531, 439, 442
 878, 613, 531, 211
 879, 594, 532, 192
 880, 599, 532, 594
 881, 593, 533, 125
 882, 600, 533, 593
 883, 598, 534, 205
 884, 598, 595, 534
 885, 597, 596, 535
 886, 535, 139, 331
 887, 542, 541, 169
 888, 536, 182, 457
 889, 543, 540, 103
 890, 537, 102, 456
 891, 618, 543, 538
 892, 538, 103, 469
 893, 619, 542, 539
 894, 539, 169, 465
 895, 632, 621, 540
 896, 632, 540, 104
 897, 631, 620, 541
 898, 631, 541, 168
 899, 757, 542, 619
 900, 542, 168, 541
 901, 756, 543, 618
 902, 543, 104, 540
 903, 687, 661, 544
 904, 661, 594, 192
 905, 686, 662, 545
 906, 662, 593, 125
 907, 651, 595, 219
 908, 652, 546, 220
 909, 653, 596, 152
 910, 654, 547, 153
 911, 638, 548, 590
 912, 755, 145, 575
 913, 639, 589, 549
 914, 639, 549, 637
 915, 752, 550, 655
 916, 656, 550, 176
 917, 690, 664, 551
 918, 664, 597, 138
 919, 689, 663, 552
 920, 663, 598, 205
 921, 751, 553, 660
 922, 659, 553,  96
 923, 694, 554, 180
 924, 694, 649, 554
 925, 693, 555, 100
 926, 693, 650, 555
 927, 692, 556, 652
 928, 628, 556, 221
 929, 691, 557, 654
 930, 627, 557, 154
 931, 685, 558, 656
 932, 626, 558, 175
 933, 684, 559, 149
 934, 684, 657, 559
 935, 683, 560, 216
 936, 683, 658, 560
 937, 682, 561, 659
 938, 623, 561,  95
 939, 681, 618, 223
 940, 562, 223, 527
 941, 680, 619, 156
 942, 563, 156, 528
 943, 647, 182, 620
 944, 647, 617, 564
 945, 646, 102, 621
 946, 646, 616, 565
 947, 633, 630, 566
 948, 633, 566, 181
 949, 634, 629, 567
 950, 634, 567, 101
 951, 679, 568, 628
 952, 615, 568, 222
 953, 678, 569, 627
 954, 614, 569, 155
 955, 673, 570, 626
 956, 612, 570, 174
 957, 635, 625, 571
 958, 635, 571, 148
 959, 636, 624, 572
 960, 636, 572, 215
 961, 672, 573, 623
 962, 609, 573,  94
 963, 574, 504, 185
 964, 639, 637, 171
 965, 607, 575, 145
 966, 604, 506, 131
 967, 665, 576, 613
 968, 606, 576, 212
 969, 666, 577,  91
 970, 577,  90, 117
 971, 671, 578, 612
 972, 603, 578, 173
 973, 640, 611, 579
 974, 640, 579, 147
 975, 641, 610, 580
 976, 641, 580, 214
 977, 668, 581, 609
 978, 591, 581,  93
 979, 642, 608, 582
 980, 642, 582, 172
 981, 670, 583, 607
 982, 587, 583, 146
 983, 667, 584, 606
 984, 588, 584, 213
 985, 644, 605, 585
 986, 644, 585,  92
 987, 669, 586, 603
 988, 586, 172, 582
 989, 643, 587, 146
 990, 643, 602, 587
 991, 645, 588, 213
 992, 645, 601, 588
 993, 590, 589, 158
 994, 589, 157, 526
 995, 638, 590, 158
 996, 590, 548, 525
 997, 648, 592, 591
 998, 648, 591,  93
 999, 592,  92, 585
1000, 592, 522, 591
1001, 662, 125, 484
1002, 677, 593,  98
1003, 661, 192, 483
1004, 674, 594, 178
1005, 754, 651, 219
1006, 595, 206, 534
1007, 753, 653, 152
1008, 596, 139, 535
1009, 664, 138, 479
1010, 676, 597, 151
1011, 663, 205, 480
1012, 675, 598, 218
1013, 752, 655, 177
1014, 599, 191, 532
1015, 751, 660,  97
1016, 600, 124, 533
1017, 601, 214, 580
1018, 601, 519, 588
1019, 602, 147, 579
1020, 602, 520, 587
1021, 603, 521, 187
1022, 669, 603, 173
1023, 604, 131, 523
1024, 755, 144, 548
1025, 605,  91, 577
1026, 605, 515, 585
1027, 606, 517, 199
1028, 667, 606, 212
1029, 607, 132, 575
1030, 670, 607, 145
1031, 608, 171, 574
1032, 608, 185, 514
1033, 609, 121, 573
1034, 668, 609,  94
1035, 610, 215, 572
1036, 610, 202, 510
1037, 611, 148, 571
1038, 611, 135, 511
1039, 612, 188, 570
1040, 671, 612, 174
1041, 613, 198, 531
1042, 665, 613, 211
1043, 614, 477, 142
1044, 680, 614, 155
1045, 615, 475, 209
1046, 681, 615, 222
1047, 616, 101, 567
1048, 616, 509, 565
1049, 617, 181, 566
1050, 617, 508, 564
1051, 681, 223, 562
1052, 756, 618, 681
1053, 680, 156, 563
1054, 757, 619, 680
1055, 647, 620, 631
1056, 620, 182, 536
1057, 646, 621, 632
1058, 621, 102, 537
1059, 622, 170, 524
1060, 622, 184, 504
1061, 623, 122, 561
1062, 672, 623,  95
1063, 624, 216, 560
1064, 624, 203, 500
1065, 625, 149, 559
1066, 625, 136, 501
1067, 626, 189, 558
1068, 673, 626, 175
1069, 627, 141, 557
1070, 678, 627, 154
1071, 628, 208, 556
1072, 679, 628, 221
1073, 629, 100, 555
1074, 629, 127, 499
1075, 630, 180, 554
1076, 630, 194, 498
1077, 697, 631, 168
1078, 647, 631, 181
1079, 696, 632, 104
1080, 646, 632, 101
1081, 697, 181, 631
1082, 633, 180, 630
1083, 696, 101, 632
1084, 634, 100, 629
1085, 738, 710, 148
1086, 635, 149, 625
1087, 727, 712, 215
1088, 636, 216, 624
1089, 637, 574, 171
1090, 637, 549, 170
1091, 729, 726, 670
1092, 638, 145, 548
1093, 695, 171, 642
1094, 639, 158, 589
1095, 734, 720, 147
1096, 640, 148, 611
1097, 736, 728, 214
1098, 641, 215, 610
1099, 731, 725, 172
1100, 642, 171, 608
1101, 726, 714, 146
1102, 643, 147, 602
1103, 735,  92, 703
1104, 644,  91, 605
1105, 730, 704, 213
1106, 645, 214, 601
1107, 646, 101, 616
1108, 646, 565, 102
1109, 647, 181, 617
1110, 647, 564, 182
1111, 733, 732,  93
1112, 648,  92, 592
1113, 649, 179, 544
1114, 649, 193, 490
1115, 650,  99, 545
1116, 650, 126, 491
1117, 651, 546, 485
1118, 651, 206, 595
1119, 652, 207, 546
1120, 692, 652, 220
1121, 653, 547, 486
1122, 653, 139, 596
1123, 654, 140, 547
1124, 691, 654, 153
1125, 655, 550, 487
1126, 655, 191, 599
1127, 656, 190, 550
1128, 685, 656, 176
1129, 657, 150, 551
1130, 657, 137, 495
1131, 658, 217, 552
1132, 658, 204, 494
1133, 659, 123, 553
1134, 682, 659,  96
1135, 660, 553, 488
1136, 660, 124, 600
1137, 687, 544, 179
1138, 661, 178, 594
1139, 686, 545,  99
1140, 662,  98, 593
1141, 689, 552, 217
1142, 663, 218, 598
1143, 690, 551, 150
1144, 664, 151, 597
1145, 665, 211, 115
1146, 688, 665, 115
1147, 666,  90, 577
1148, 700, 666,  91
1149, 705, 212, 688
1150, 667, 213, 584
1151, 718, 706,  94
1152, 668,  93, 581
1153, 719, 711, 173
1154, 669, 172, 586
1155, 729, 145, 638
1156, 670, 146, 583
1157, 739, 719, 671
1158, 671, 173, 578
1159, 737, 718, 672
1160, 672,  94, 573
1161, 742, 709, 673
1162, 673, 174, 570
1163, 779, 715, 178
1164, 674, 177, 599
1165, 785, 722, 218
1166, 675, 219, 595
1167, 784, 721, 151
1168, 676, 152, 596
1169, 782, 713,  98
1170, 677,  97, 600
1171, 744, 707, 678
1172, 678, 155, 569
1173, 745, 708, 679
1174, 679, 222, 568
1175, 680, 563, 614
1176, 757, 680, 155
1177, 681, 562, 615
1178, 756, 681, 222
1179, 778, 698,  96
1180, 682,  95, 561
1181, 749, 216, 740
1182, 683, 217, 658
1183, 746, 149, 741
1184, 684, 150, 657
1185, 775, 702, 176
1186, 685, 175, 558
1187, 792,  99, 772
1188, 686,  98, 662
1189, 793, 179, 771
1190, 687, 178, 661
1191, 705, 688, 114
1192, 688, 212, 665
1193, 777, 689, 217
1194, 689, 218, 663
1195, 776, 690, 150
1196, 690, 151, 664
1197, 795, 774, 153
1198, 691, 154, 557
1199, 794, 773, 220
1200, 692, 221, 556
1201, 789, 772, 693
1202, 693,  99, 650
1203, 788, 771, 694
1204, 694, 179, 649
1205, 787, 695, 725
1206, 695, 158, 639
1207, 758, 696, 104
1208, 758, 747, 696
1209, 759, 697, 168
1210, 759, 748, 697
1211, 765, 750, 698
1212, 765, 698, 109
1213, 765, 699, 749
1214, 777, 699, 109
1215, 768, 700, 735
1216, 700, 114, 666
1217, 764, 701, 746
1218, 776, 701, 163
1219, 764, 702, 163
1220, 764, 743, 702
1221, 767, 703, 732
1222, 735, 703, 113
1223, 767, 704, 113
1224, 767, 736, 704
1225, 768, 705, 114
1226, 768, 730, 705
1227, 766, 733, 706
1228, 766, 706, 111
1229, 759, 707, 744
1230, 757, 707, 168
1231, 758, 708, 745
1232, 756, 708, 104
1233, 760, 709, 742
1234, 739, 709, 161
1235, 760, 710, 161
1236, 760, 741, 710
1237, 763, 711, 160
1238, 763, 731, 711
1239, 761, 712, 111
1240, 761, 740, 712
1241, 770, 713, 107
1242, 770, 724, 713
1243, 763, 714, 159
1244, 763, 734, 714
1245, 769, 715, 165
1246, 769, 723, 715
1247, 770, 716, 722
1248, 780, 716, 107
1249, 769, 717, 721
1250, 781, 717, 165
1251, 761, 718, 737
1252, 718, 111, 706
1253, 762, 719, 739
1254, 719, 160, 711
1255, 762, 720, 160
1256, 762, 738, 720
1257, 721, 676, 151
1258, 769, 721, 164
1259, 722, 675, 218
1260, 770, 722, 108
1261, 783, 723, 164
1262, 723, 674, 715
1263, 786, 724, 108
1264, 724, 677, 713
1265, 725, 642, 172
1266, 787, 725, 159
1267, 787, 726, 729
1268, 726, 159, 714
1269, 766, 727, 728
1270, 727, 111, 712
1271, 728, 641, 214
1272, 766, 728, 112
1273, 729, 638, 158
1274, 787, 729, 158
1275, 730, 113, 704
1276, 730, 667, 705
1277, 731, 159, 725
1278, 731, 669, 711
1279, 732, 648,  93
1280, 767, 732, 112
1281, 733, 112, 732
1282, 733, 668, 706
1283, 734, 160, 720
1284, 734, 643, 714
1285, 735, 644,  92
1286, 768, 735, 113
1287, 736, 112, 728
1288, 736, 645, 704
1289, 750, 737,  95
1290, 761, 737, 110
1291, 738, 161, 710
1292, 738, 148, 640
1293, 739, 174, 709
1294, 762, 739, 161
1295, 749, 740, 110
1296, 740, 216, 636
1297, 746, 741, 162
1298, 741, 149, 635
1299, 743, 742, 175
1300, 760, 742, 162
1301, 743, 162, 742
1302, 743, 175, 685
1303, 791, 744, 154
1304, 759, 744, 167
1305, 790, 745, 221
1306, 758, 745, 105
1307, 746, 684, 149
1308, 764, 746, 162
1309, 789, 747, 105
1310, 747, 100, 634
1311, 788, 748, 167
1312, 748, 180, 633
1313, 749, 683, 216
1314, 765, 749, 110
1315, 750, 110, 737
1316, 750, 682, 698
1317, 786, 751,  97
1318, 751,  96, 553
1319, 783, 752, 177
1320, 752, 176, 550
1321, 781, 753, 152
1322, 753, 153, 547
1323, 780, 754, 219
1324, 754, 220, 546
1325, 755, 548, 145
1326, 755, 575, 604
1327, 756, 222, 708
1328, 756, 104, 543
1329, 757, 155, 707
1330, 757, 168, 542
1331, 758, 105, 747
1332, 758, 104, 708
1333, 759, 167, 748
1334, 759, 168, 707
1335, 760, 161, 709
1336, 760, 162, 741
1337, 761, 111, 718
1338, 761, 110, 740
1339, 762, 160, 719
1340, 762, 161, 738
1341, 763, 159, 731
1342, 763, 160, 734
1343, 764, 163, 701
1344, 764, 162, 743
1345, 765, 110, 750
1346, 765, 109, 699
1347, 766, 111, 727
1348, 766, 112, 733
1349, 767, 113, 703
1350, 767, 112, 736
1351, 768, 113, 730
1352, 768, 114, 700
1353, 769, 165, 717
1354, 769, 164, 723
1355, 770, 108, 724
1356, 770, 107, 716
1357, 796, 771, 788
1358, 793, 771, 166
1359, 797, 772, 789
1360, 792, 772, 106
1361, 797, 773, 106
1362, 797, 790, 773
1363, 796, 774, 166
1364, 796, 791, 774
1365, 775, 163, 702
1366, 775, 176, 752
1367, 776, 150, 701
1368, 798, 776, 163
1369, 777, 217, 699
1370, 799, 777, 109
1371, 778, 109, 698
1372, 778,  96, 751
1373, 779, 165, 715
1374, 779, 178, 687
1375, 780, 219, 716
1376, 800, 780, 107
1377, 781, 152, 717
1378, 801, 781, 165
1379, 782, 107, 713
1380, 782,  98, 686
1381, 783, 177, 723
1382, 798, 783, 164
1383, 784, 164, 721
1384, 784, 151, 690
1385, 785, 108, 722
1386, 785, 218, 689
1387, 786,  97, 724
1388, 799, 786, 108
1389, 787, 159, 726
1390, 787, 158, 695
1391, 788, 180, 748
1392, 796, 788, 167
1393, 789, 100, 747
1394, 797, 789, 105
1395, 790, 105, 745
1396, 790, 221, 692
1397, 791, 167, 744
1398, 791, 154, 691
1399, 792, 686,  99
1400, 800, 792, 106
1401, 793, 687, 179
1402, 801, 793, 166
1403, 794, 106, 773
1404, 794, 754, 780
1405, 795, 166, 774
1406, 795, 753, 781
1407, 796, 167, 791
1408, 796, 166, 771
1409, 797, 105, 790
1410, 797, 106, 772
1411, 798, 164, 784
1412, 798, 163, 775
1413, 799, 109, 778
1414, 799, 108, 785
1415, 800, 107, 782
1416, 800, 106, 794
1417, 801, 165, 779
1418, 801, 166, 795
1419, 115, 452, 802
1420,  90, 666, 802
*Nset, nset=_PickedSet2, internal, generate
   1,  802,    1
*Elset, elset=_PickedSet2, internal, generate
    1,  1420,     1
** Section: Section-1
*Solid Section, elset=_PickedSet2, material=Material-1
1.,
*End Part
**  
**
** ASSEMBLY
**
*Assembly, name=Assembly
**  
*Instance, name=plate-1, part=plate
*End Instance
**  
*Nset, nset=LeftEdgeSet, instance=plate-1
  46,  47,  48,  49,  50,  51,  52, 272, 273, 274, 275, 276
*Elset, elset=LeftEdgeSet, instance=plate-1
 192, 333, 405, 407, 408, 410, 722, 732, 737, 740, 747
*Elset, elset=_LoadSurface_S2, internal, instance=plate-1
 274, 277, 445, 447, 448, 724, 726, 734, 736, 755
*Elset, elset=_LoadSurface_S1, internal, instance=plate-1
 450,
*Surface, type=ELEMENT, name=LoadSurface
_LoadSurface_S2, S2
_LoadSurface_S1, S1
*End Assembly
** 
** MATERIALS
** 
*Material, name=Material-1
*Elastic
 2.9e+07, 0.3
** 
** BOUNDARY CONDITIONS
** 
** Name: BC-LeftEdge Type: Displacement/Rotation
*Boundary
LeftEdgeSet, 1, 1
LeftEdgeSet, 2, 2
** ----------------------------------------------------------------
** 
** STEP: Step-1
** 
*Step, name=Step-1, nlgeom=NO
*Static
1., 1., 1e-05, 1.
** 
** LOADS
** 
** Name: Load-1   Type: Pressure
*Dsload
LoadSurface, P, -8499.
** 
** OUTPUT REQUESTS
** 
*Restart, write, frequency=0
** 
** FIELD OUTPUT: F-Output-1
** 
*Output, field, variable=PRESELECT
** 
** HISTORY OUTPUT: H-Output-1
** 
*Output, history, variable=PRESELECT
*End Step
