*Heading
** Job name: plate_double4__9499 Model name: PlateModel
** Generated by: Abaqus/CAE 2022
*Preprint, echo=NO, model=NO, history=NO, contact=NO
**
** PARTS
**
*Part, name=plate
*Node
      1,   16.8019371,  0.867767453
      2,   16.2469788,   1.56366301
      3,   15.4450417,    1.9498558
      4,   13.7530203,   1.56366301
      5,   13.1980619,  0.867767453
      6,          13.,           0.
      7,   13.1980619, -0.867767453
      8,   13.7530203,  -1.56366301
      9,   14.5549583,   -1.9498558
     10,   16.2469788,  -1.56366301
     11,   16.8019371, -0.867767453
     12,          17.,           0.
     13,  -13.1980619,  0.867767453
     14,  -13.7530203,   1.56366301
     15,  -14.5549583,    1.9498558
     16,  -16.2469788,   1.56366301
     17,  -16.8019371,  0.867767453
     18,         -17.,           0.
     19,  -16.8019371, -0.867767453
     20,  -16.2469788,  -1.56366301
     21,  -15.4450417,   -1.9498558
     22,  -13.7530203,  -1.56366301
     23,  -13.1980619, -0.867767453
     24,         -13.,           0.
     25,   28.2089558,           5.
     26,   26.4179096,           5.
     27,   24.6268654,           5.
     28,   22.8358212,           5.
     29,   21.0447769,           5.
     30,   18.3582096,           5.
     31,   16.5671635,           5.
     32,   14.7761192,           5.
     33,    12.985075,           5.
     34,   11.1940298,           5.
     35,   9.40298462,           5.
     36,   7.61194038,           5.
     37,   5.82089567,           5.
     38,   4.02985096,           5.
     39,   2.23880601,           5.
     40,  0.447761208,           5.
     41,  -2.23880601,           5.
     42,  -4.02985096,           5.
     43,  -5.82089567,           5.
     44,  -7.61194038,           5.
     45,  -9.40298462,           5.
     46,  -11.1940298,           5.
     47,   -12.985075,           5.
     48,  -14.7761192,           5.
     49,  -16.5671635,           5.
     50,  -18.3582096,           5.
     51,  -21.0447769,           5.
     52,  -22.8358212,           5.
     53,  -24.6268654,           5.
     54,  -26.4179096,           5.
     55,  -28.2089558,           5.
     56,          30.,           5.
     57,         -30.,           5.
     58,         -30.,   3.18181825
     59,         -30.,   1.36363637
     60,         -30., -0.454545468
     61,         -30.,  -1.36363637
     62,         -30.,  -3.18181825
     63,         -30.,          -5.
     64,  -28.2089558,          -5.
     65,  -26.4179096,          -5.
     66,  -24.6268654,          -5.
     67,  -22.8358212,          -5.
     68,  -21.0447769,          -5.
     69,  -18.3582096,          -5.
     70,  -16.5671635,          -5.
     71,  -14.7761192,          -5.
     72,   -12.985075,          -5.
     73,  -11.1940298,          -5.
     74,  -9.40298462,          -5.
     75,  -7.61194038,          -5.
     76,  -5.82089567,          -5.
     77,  -4.02985096,          -5.
     78,  -2.23880601,          -5.
     79, -0.447761208,          -5.
     80,   2.23880601,          -5.
     81,   4.02985096,          -5.
     82,   5.82089567,          -5.
     83,   7.61194038,          -5.
     84,   9.40298462,          -5.
     85,   11.1940298,          -5.
     86,    12.985075,          -5.
     87,   14.7761192,          -5.
     88,   16.5671635,          -5.
     89,   18.3582096,          -5.
     90,   21.0447769,          -5.
     91,   22.8358212,          -5.
     92,   24.6268654,          -5.
     93,   26.4179096,          -5.
     94,   28.2089558,          -5.
     95,          30.,          -5.
     96,          30.,  -3.18181825
     97,          30.,  -1.36363637
     98,          30.,  0.454545468
     99,          30.,   1.36363637
    100,          30.,   3.18181825
    101,   13.0433226,   -3.3813777
    102,  -12.9404144,  -1.79350877
    103,   17.0196724,  -1.70610547
    104,   18.7506485,  -1.74362171
    105,   20.6287975,  -1.68069112
    106,   22.5392208,  -1.69850636
    107,   24.4264469,  -1.76332426
    108,   26.2770615,  -1.77465427
    109,    28.260252,  -1.57545245
    110,    28.067543, -0.047741171
    111,    26.231945, -0.0687215403
    112,   24.3704681, -0.00289898831
    113,   22.5560646,  0.006522418
    114,   20.6758823, 0.0558908544
    115,   18.5635929, 0.00926871784
    116,   11.1933575,  -3.39826584
    117,    9.3922348,  -3.41789675
    118,   12.9435158,  -1.72731543
    119,   7.57189846,  -3.42625165
    120,   11.1953335,   -1.7687484
    121,    5.7194643,  -3.42517471
    122,   9.38659859,  -1.78388429
    123,   3.85081124,  -3.45543551
    124,   7.53916359,  -1.79829311
    125,    2.0476892,  -3.34265542
    126,   5.67317152,  -1.76265466
    127, 0.0412659645,  -3.37506533
    128,   3.76947355,  -1.71747601
    129,  -1.93806577,  -3.52070546
    130,   1.94470751,  -1.58383584
    131,  -3.84662724,  -3.44494271
    132, -0.0373857096,      -1.7299
    133,  -5.71043968,  -3.41001654
    134,  -1.84110129,  -1.72345924
    135,  -7.57056952,  -3.39582396
    136,  -3.53060007,  -1.68066466
    137,  -9.39715767,  -3.40545917
    138,  -5.60138845,  -1.70493984
    139,  -11.2211809,  -3.40992022
    140,  -7.52722645,  -1.64004815
    141,  -13.0559111,  -3.39574122
    142,   -9.4166441,  -1.69723022
    143,  -14.8594351,  -3.53766966
    144,  -11.3906116,  -1.69887698
    145,   11.4116402, -0.0253704265
    146,   9.41696835, -0.061110951
    147,   7.51647663, -0.112517558
    148,   5.61761236, -0.0336322859
    149,   3.80747437, -0.000716030714
    150,   1.78575706, 0.0620396659
    151,           0.,           0.
    152,  -1.78575706, -0.0620396659
    153,  -3.80747437, 0.000716030714
    154,  -5.61761236, 0.0336322859
    155,  -7.51647663,  0.112517558
    156,  -9.41696835,  0.061110951
    157,  -11.4116402, 0.0253704265
    158,   12.9404144,   1.79350877
    159,   11.3906116,   1.69887698
    160,    9.4166441,   1.69723022
    161,   7.52722645,   1.64004815
    162,   5.60138845,   1.70493984
    163,   3.53060007,   1.68066466
    164,   1.84110129,   1.72345924
    165, 0.0373857096,       1.7299
    166,  -1.94470751,   1.58383584
    167,  -3.76947355,   1.71747601
    168,  -5.67317152,   1.76265466
    169,  -7.53916359,   1.79829311
    170,  -9.38659859,   1.78388429
    171,  -11.1953335,    1.7687484
    172,  -12.9435158,   1.72731543
    173,   28.3730373,   3.26290607
    174,   26.3652668,   3.40010357
    175,   24.4910431,   3.42759943
    176,    22.621479,   3.45598054
    177,   20.7212734,   3.52804255
    178,   18.7463951,   3.46704173
    179,   16.5078526,   3.27739453
    180,   14.8594351,   3.53766966
    181,   13.0559111,   3.39574122
    182,   11.2211809,   3.40992022
    183,   9.39715767,   3.40545917
    184,   7.57056952,   3.39582396
    185,   5.71043968,   3.41001654
    186,   3.84662724,   3.44494271
    187,   1.93806577,   3.52070546
    188, -0.0412659645,   3.37506533
    189,   -2.0476892,   3.34265542
    190,  -3.85081124,   3.45543551
    191,   -5.7194643,   3.42517471
    192,  -7.57189846,   3.42625165
    193,   -9.3922348,   3.41789675
    194,  -11.1933575,   3.39826584
    195,  -13.0433226,    3.3813777
    196,  -14.8601837,   3.53789973
    197,   -16.512804,   3.29995251
    198,  -18.7520828,   3.49493241
    199,  -20.6024284,   3.49525833
    200,  -22.6201572,   3.41322136
    201,  -24.4971466,   3.43367124
    202,  -26.3578968,    3.4151814
    203,  -28.3632679,   3.27437711
    204,   -28.260252,   1.57545245
    205,  -26.2770615,   1.77465427
    206,  -24.4264469,   1.76332533
    207,  -22.5392227,   1.69850695
    208,  -20.6287994,   1.68069065
    209,  -18.7506485,   1.74362171
    210,  -17.0196724,   1.70610547
    211,   16.8407059,   1.69586229
    212,   18.7608013,   1.80914164
    213,   20.6170502,    1.7049557
    214,   22.2878876,   1.69393086
    215,   24.3585472,   1.74728584
    216,   26.2835541,   1.68411124
    217,   28.3001461,   1.52320087
    218,  -28.3730373,  -3.26290607
    219,  -26.3652668,  -3.40010357
    220,  -24.4910431,  -3.42759943
    221,   -22.621479,  -3.45598054
    222,  -20.7212734,  -3.52804255
    223,  -18.7463951,  -3.46704173
    224,  -16.5078526,  -3.27739453
    225,   14.8601837,  -3.53789973
    226,    16.512804,  -3.29995251
    227,   18.7520828,  -3.49493241
    228,   20.6024284,  -3.49525833
    229,   22.6201572,  -3.41322064
    230,   24.4971466,  -3.43367052
    231,   26.3578968,   -3.4151814
    232,   28.3632679,  -3.27437711
    233,  -16.8407059,  -1.69586229
    234,  -18.7608013,  -1.80914164
    235,  -20.6170502,  -1.70495546
    236,  -22.2878895,  -1.69393063
    237,  -24.3585472,  -1.74728584
    238,  -26.2835541,  -1.68411124
    239,  -28.3001461,  -1.52320087
    240,  -18.5635929, -0.00926869828
    241,  -20.6758823, -0.0558908731
    242,  -22.5560665, -0.00652211718
    243,  -24.3704681, 0.00289922138
    244,   -26.231945, 0.0687215626
    245,   -28.067543,  0.047741171
    246,   14.5549583,    1.9498558
    247,   15.4450417,   -1.9498558
    248,  -15.4450417,    1.9498558
    249,  -14.5549583,   -1.9498558
    250,   29.1044769,           5.
    251,   27.3134327,           5.
    252,   25.5223885,           5.
    253,   23.7313442,           5.
    254,   21.9402981,           5.
    255,   20.1492538,           5.
    256,   19.2537308,           5.
    257,   17.4626865,           5.
    258,   15.6716413,           5.
    259,   13.8805971,           5.
    260,   12.0895519,           5.
    261,   10.2985077,           5.
    262,    8.5074625,           5.
    263,   6.71641779,           5.
    264,   4.92537308,           5.
    265,   3.13432837,           5.
    266,   1.34328353,           5.
    267, -0.447761208,           5.
    268,  -1.34328353,           5.
    269,  -3.13432837,           5.
    270,  -4.92537308,           5.
    271,  -6.71641779,           5.
    272,   -8.5074625,           5.
    273,  -10.2985077,           5.
    274,  -12.0895519,           5.
    275,  -13.8805971,           5.
    276,  -15.6716413,           5.
    277,  -17.4626865,           5.
    278,  -19.2537308,           5.
    279,  -20.1492538,           5.
    280,  -21.9402981,           5.
    281,  -23.7313442,           5.
    282,  -25.5223885,           5.
    283,  -27.3134327,           5.
    284,  -29.1044769,           5.
    285,         -30.,     4.090909
    286,         -30.,   2.27272725
    287,         -30.,  0.454545468
    288,         -30.,  -2.27272725
    289,         -30.,    -4.090909
    290,  -29.1044769,          -5.
    291,  -27.3134327,          -5.
    292,  -25.5223885,          -5.
    293,  -23.7313442,          -5.
    294,  -21.9402981,          -5.
    295,  -20.1492538,          -5.
    296,  -19.2537308,          -5.
    297,  -17.4626865,          -5.
    298,  -15.6716413,          -5.
    299,  -13.8805971,          -5.
    300,  -12.0895519,          -5.
    301,  -10.2985077,          -5.
    302,   -8.5074625,          -5.
    303,  -6.71641779,          -5.
    304,  -4.92537308,          -5.
    305,  -3.13432837,          -5.
    306,  -1.34328353,          -5.
    307,  0.447761208,          -5.
    308,   1.34328353,          -5.
    309,   3.13432837,          -5.
    310,   4.92537308,          -5.
    311,   6.71641779,          -5.
    312,    8.5074625,          -5.
    313,   10.2985077,          -5.
    314,   12.0895519,          -5.
    315,   13.8805971,          -5.
    316,   15.6716413,          -5.
    317,   17.4626865,          -5.
    318,   19.2537308,          -5.
    319,   20.1492538,          -5.
    320,   21.9402981,          -5.
    321,   23.7313442,          -5.
    322,   25.5223885,          -5.
    323,   27.3134327,          -5.
    324,   29.1044769,          -5.
    325,          30.,    -4.090909
    326,          30.,  -2.27272725
    327,          30., -0.454545468
    328,          30.,   2.27272725
    329,          30.,     4.090909
    330,  -13.6215267,  -2.51430058
    331,   -16.320303,   2.30948806
    332,    16.320303,  -2.30948806
    333,   13.6215267,   2.51430058
    334,   16.2920437,   2.27864909
    335,  -16.2920437,  -2.27864909
    336,  -13.6156855,   2.49550176
    337,   13.6156855,  -2.49550176
    338,   17.5281963,  -1.15751815
    339,  -12.2702169,  -1.26895666
    340,   12.2702169,   1.26895666
    341,  -17.5281963,   1.15751815
    342,  -12.4464245,   1.15164185
    343,   17.4859486,   1.37600172
    344,  -17.4859486,  -1.37600172
    345,   12.4464245,  -1.15164185
    346,  -20.6094074,  -4.38345242
    347,   20.6094074,   4.38345242
    348,   28.7889137,   4.17557335
    349,   26.8531876,   4.19977474
    350,   25.0232697,   4.22613621
    351,   23.1927605,   4.22983932
    352,   19.7215195,    4.1095233
    353,    17.050766,   4.18736935
    354,  -28.7889137,  -4.17557335
    355,  -26.8531876,  -4.19977474
    356,  -25.0232697,  -4.22613621
    357,  -23.1927605,  -4.22983932
    358,  -19.7215195,   -4.1095233
    359,   -17.050766,  -4.18736935
    360,  -16.1248932,  -4.22492266
    361,   16.1248932,   4.22492266
    362,   15.2477617,   4.27465057
    363,  -15.2477617,  -4.27465057
    364,    27.805748,   4.16705704
    365,     25.93536,   4.21242952
    366,  -9.84689999,   4.21064854
    367,  -11.6464596,   4.19940996
    368,   24.0965748,   4.21888065
    369,   4.40049362,  -4.22610569
    370,   6.23047638,  -4.22159004
    371,  -14.3636789,  -4.24766684
    372,  -18.8088303,   4.37710428
    373,  -21.3534279,    4.2605443
    374,  -22.2838154,  -4.24844122
    375,  -15.2513103,   4.27346706
    376,  -17.0550575,   4.19487047
    377,  -13.4644203,   4.21547461
    378,   22.2838154,   4.24844122
    379,   18.0106735,   4.23475695
    380,   14.3636789,   4.24766684
    381,   12.5642366,   4.20615244
    382,   10.7527514,   4.21031618
    383,   8.94626808,   4.21149254
    384,    7.1386528,   4.21491098
    385,   5.31018353,   4.21717644
    386,   2.63799024,  -4.25179625
    387,   3.49534154,   4.24455547
    388, 0.0112790698,  -4.31336737
    389,  0.962213457,  -4.07181597
    390,   1.81279969,   4.38325453
    391,  -1.81279969,  -4.38325453
    392, -0.0112790698,   4.31336737
    393, -0.962213457,   4.07181597
    394,  -3.49534154,  -4.24455547
    395,  -2.63799024,   4.25179625
    396,  -5.31018353,  -4.21717644
    397,  -4.40049362,   4.22610569
    398,   -7.1386528,  -4.21491098
    399,  -6.23047638,   4.22159004
    400,  -8.94626808,  -4.21149254
    401,  -8.04297924,   4.21639967
    402,  -10.7527514,  -4.21031618
    403,  -23.1899643,   4.22345257
    404,  -24.0965748,  -4.21888065
    405,  -25.0242863,   4.22714806
    406,    -25.93536,  -4.21242952
    407,  -26.8519478,   4.20228434
    408,   -27.805748,  -4.16705704
    409,   -28.787075,   4.17877769
    410,  -18.0106735,  -4.23475695
    411,  -12.5642366,  -4.20615244
    412,   8.04297924,  -4.21639967
    413,   9.84689999,  -4.21064854
    414,   11.6464596,  -4.19940996
    415,   13.4644203,  -4.21547461
    416,   15.2513103,  -4.27346706
    417,   17.0550575,  -4.19487047
    418,   18.8088303,  -4.37710428
    419,   21.3534279,   -4.2605443
    420,   23.1899643,  -4.22345209
    421,   25.0242882,  -4.22714806
    422,   26.8519478,  -4.20228434
    423,    28.787075,  -4.17877769
    424,   21.3837204,   4.27938938
    425,   18.8181057,   4.36226416
    426,   13.4674978,   4.21734428
    427,    11.660121,   4.20496416
    428,    9.8498888,   4.20745039
    429,   8.04203987,   4.20786619
    430,   6.22430134,   4.21343231
    431,   4.39191294,     4.221457
    432,     2.591084,   4.27497244
    433,  0.924417078,   4.08425379
    434,   -1.8459965,   4.33325338
    435,  -3.51660633,   4.25446272
    436,   -5.3068471,   4.21577263
    437,  -7.13720465,   4.21707535
    438,   -8.9450264,   4.21161699
    439,  -10.7459154,   4.20374775
    440,  -12.5547829,   4.19529247
    441,  -14.3645344,   4.24670362
    442,  -16.1251221,   4.23432493
    443,  -18.0146503,   4.24096155
    444,  -19.6889477,   4.13720179
    445,  -20.5677662,    4.3786006
    446,  -22.2642193,   4.22347546
    447,  -24.0972958,     4.218997
    448,  -25.9340935,   4.21552944
    449,  -27.8035984,   4.16991901
    450,  -21.3837204,  -4.27938938
    451,  -18.8181057,  -4.36226416
    452,  -13.4674978,  -4.21734428
    453,   -11.660121,  -4.20496416
    454,   -9.8498888,  -4.20745039
    455,  -8.04203987,  -4.20786619
    456,  -6.22430134,  -4.21343231
    457,  -4.39191294,    -4.221457
    458,    -2.591084,  -4.27497244
    459, -0.924417078,  -4.08425379
    460,    1.8459965,  -4.33325338
    461,   3.51660633,  -4.25446272
    462,    5.3068471,  -4.21577263
    463,   7.13720465,  -4.21707535
    464,    8.9450264,  -4.21161699
    465,   10.7459154,  -4.20374775
    466,   12.5547829,  -4.19529247
    467,   14.3645344,  -4.24670362
    468,   16.1251221,  -4.23432493
    469,   18.0146503,  -4.24096155
    470,   19.6889477,  -4.13720179
    471,   20.5677662,   -4.3786006
    472,   22.2642193,  -4.22347546
    473,   24.0972958,  -4.21899652
    474,   25.9340935,  -4.21552944
    475,   27.8035984,  -4.16991901
    476,   29.2749462,   3.49266958
    477,  -29.2749462,  -3.49266958
    478,   29.2184486,  -2.75113869
    479,   29.1535015,  -1.00193536
    480,  -29.2184486,   2.75113869
    481,  -29.1535015,   1.00193536
    482,   29.1700878,  0.967919707
    483,   29.2021732,   1.87349415
    484,  -29.1700878, -0.967919707
    485,  -29.2021732,  -1.87349415
    486,  -29.2737579,   3.49540424
    487,  -29.1900883,   1.89064217
    488,  -29.0409241, 0.0222226493
    489,  -29.2300301,  -2.74082589
    490,   29.2737579,  -3.49540424
    491,   29.1900883,  -1.89064217
    492,   29.0409241, -0.0222226493
    493,   29.2300301,   2.74082589
    494,  -12.6060352,   -2.6170063
    495,   12.6060352,    2.6170063
    496,  -12.5681906,   2.55390477
    497,   12.5681906,  -2.55390477
    498,   17.2933903,   2.34578729
    499,  -17.2933903,  -2.34578729
    500,  -17.2715054,    2.5111804
    501,   17.2715054,   -2.5111804
    502,  -12.3413773,  0.435058713
    503,   12.3413773, -0.435058713
    504,   17.6351471,   0.48125869
    505,  -17.6351471,  -0.48125869
    506,   12.3050499,  0.419769377
    507,  -17.6364174,  0.423901409
    508,  -12.3050499, -0.419769377
    509,   17.6364174, -0.423901379
    510,   27.3253708,    3.3354044
    511,   23.5463581,    3.4270041
    512,  -27.3253708,   -3.3354044
    513,  -23.5463581,   -3.4270041
    514,   17.6450348,   3.34880757
    515,  -17.6450348,  -3.34880757
    516,   25.4335442,   3.41049552
    517,  -25.4335442,  -3.41049552
    518,  -21.6611614,   3.40994239
    519,   21.6611614,  -3.40994239
    520,  -21.7111168,  -3.50672674
    521,   21.7111168,   3.50672674
    522,   17.6438408,  -3.38783312
    523,  -17.6438408,   3.38783312
    524,  -3.03885603,   3.58784485
    525,   3.03885603,  -3.58784485
    526,   2.93481827,   3.49680471
    527,  -2.93481827,  -3.49680471
    528,   -23.556673,   3.41622901
    529,    23.556673,  -3.41622782
    530,   15.6290035,   3.62178063
    531,  -15.6290035,  -3.62178063
    532,  -15.6316986,   3.62819242
    533,   15.6316986,  -3.62819242
    534,  -4.78063107,   3.42192221
    535,   4.78063107,  -3.42192221
    536,   4.77128696,   3.41555357
    537,  -4.77128696,  -3.41555357
    538,  -25.4347458,   3.42604017
    539,   25.4347477,  -3.42603993
    540,   13.9749823,   3.45938611
    541,  -13.9749823,  -3.45938611
    542,  -13.9717579,   3.45329332
    543,   13.9717579,  -3.45329332
    544,  -6.65359735,   3.42274857
    545,   6.65359735,  -3.42274857
    546,   6.64245462,   3.38509107
    547,  -6.64245462,  -3.38509107
    548,  -27.3095303,   3.35673451
    549,   27.3095303,  -3.35673451
    550,   12.1339111,   3.40802145
    551,  -12.1339111,  -3.40802145
    552,   -12.108839,   3.38458467
    553,    12.108839,  -3.38458467
    554,  -8.48479939,   3.41745114
    555,   8.48479939,  -3.41745114
    556,   8.48851776,   3.38473868
    557,  -8.48851776,  -3.38473868
    558,   10.3090372,   3.40191817
    559,  -10.3090372,  -3.40191817
    560,  -10.2902498,   3.40611148
    561,   10.2902498,  -3.40611148
    562,   15.3957396,   2.77982855
    563,  -15.3957396,  -2.77982855
    564,  -15.4010553,   2.78829241
    565,   15.4010553,  -2.78829241
    566,  -14.4807281,   2.84496856
    567,   14.4807281,  -2.84496856
    568,   -14.481328,  -2.84820819
    569,    14.481328,   2.84820819
    570,   28.5724583,    2.3711977
    571,  -28.5724583,   -2.3711977
    572,  -28.5499763,   2.39763546
    573,   28.5499763,  -2.39763546
    574,  -22.0798359,   2.55707073
    575,   22.0798359,  -2.55707026
    576,  -22.0261059,  -2.70465827
    577,   22.0261059,   2.70465827
    578,   11.6414185,  0.846126497
    579,  -11.6414185, -0.846126497
    580,   -18.257803,  0.999203622
    581,    18.257803, -0.999203622
    582,  -3.15679216,   2.67143011
    583,   3.15679216,  -2.67143011
    584,  -3.26030207,  -2.69147515
    585,   3.26030207,   2.69147515
    586,  -23.9843769,   2.59933829
    587,   23.9843769,  -2.59933686
    588,  -23.9405804,  -2.60103202
    589,   23.9405804,   2.60103202
    590,  -5.21707392,   2.59809208
    591,   5.21707392,  -2.59809208
    592,  -5.17422533,  -2.57345557
    593,   5.17422533,   2.57345557
    594,  -27.7419701,   2.48405814
    595,   27.7419701,  -2.48405814
    596,  -27.7712727,  -2.44509888
    597,   27.7712727,   2.44509888
    598,  -25.8509121,    2.6054945
    599,   25.8509121,   -2.6054945
    600,  -25.8460445,  -2.55614281
    601,   25.8460445,   2.55614281
    602,  -7.08801746,   2.61402273
    603,   7.08801746,  -2.61402273
    604,   7.07116461,   2.52277899
    605,  -7.07116461,  -2.52277899
    606,   11.7205725,   2.61715531
    607,  -11.7205725,  -2.61715531
    608,  -8.92690659,   2.60825968
    609,   8.92690659,  -2.60825968
    610,   8.94170666,   2.54241514
    611,  -8.94170666,  -2.54241514
    612,   9.86630058,   2.56160235
    613,  -9.86630058,  -2.56160235
    614,  -9.83496857,   2.59931231
    615,   9.83496857,  -2.59931231
    616,  -10.7412109,   2.59039354
    617,   10.7412109,  -2.59039354
    618,  -10.8087778,  -2.57061744
    619,   10.8087778,   2.57061744
    620,   8.01481152,   2.52313828
    621,  -8.01481152,  -2.52313828
    622,   8.01076698,  -2.60990357
    623,  -8.01076698,   2.60990357
    624,    26.808342,   2.51195359
    625,   -26.808342,  -2.51195359
    626,   26.7905865,   -2.5590322
    627,  -26.7905865,    2.5590322
    628,   6.12561226,   2.54149771
    629,  -6.12561226,  -2.54149771
    630,   6.15824795,  -2.60342598
    631,  -6.15824795,   2.60342598
    632,   24.8934021,   2.57652926
    633,  -24.8934021,  -2.57652926
    634,   24.9240227,  -2.60529995
    635,  -24.9240208,   2.60530066
    636,  -25.3616428,   1.77477777
    637,   25.3616428,  -1.77477741
    638,  -6.61411572,   1.78178811
    639,   6.61411572,  -1.78178811
    640,  -8.46894741,   1.78778374
    641,   8.46894741,  -1.78778374
    642,   10.3674679,   1.70886981
    643,  -10.3674679,  -1.70886981
    644,  -10.2921133,   1.76096165
    645,   10.2921133,  -1.76096165
    646,  -27.2265949,   1.69853795
    647,   27.2265949,  -1.69853783
    648,   -23.048008,   2.57325006
    649,    23.048008,   -2.5732491
    650,  -22.9682007,  -2.61104512
    651,   22.9682007,   2.61104512
    652,  -21.2725925,  -2.87396407
    653,   21.2725925,   2.87396407
    654,  -4.25427771,   2.60254025
    655,   4.25427771,  -2.60254025
    656,  -4.20374823,  -2.59502912
    657,   4.20374823,   2.59502912
    658,   2.49985147,   2.86315918
    659,  -2.49985147,  -2.86315918
    660,    10.842886,  0.842956901
    661,   -10.842886, -0.842956901
    662,     19.17696,  -0.87721324
    663,    -19.17696,   0.87721318
    664,  -27.2607346,  -1.61717415
    665,   27.2607346,   1.61717415
    666,  -11.6444597,   2.57673025
    667,   11.6444597,  -2.57673025
    668,   12.1855707,    1.9991008
    669,  -12.1855707,   -1.9991008
    670,  -21.3402138,  -2.09102845
    671,   21.3402138,   2.09102845
    672,   2.56924295,   2.08557963
    673,  -2.56924295,  -2.08557963
    674,  -20.5740261,  -2.52237511
    675,   20.5740261,   2.52237535
    676,   1.79885685,   2.52356625
    677,  -1.79885685,  -2.52356625
    678,   26.7196426, -0.905706167
    679,  -26.7196426,  0.905706167
    680,   23.4991035,  -1.71602631
    681,  -23.3895035,  -1.74850202
    682,   23.3895035,   1.74850202
    683,  -23.4991055,   1.71602714
    684,  -4.63444185,  -1.72816014
    685,   4.63444185,   1.72816014
    686,   27.6650505,  0.741591513
    687,  -27.6650505, -0.741591513
    688,   -12.081708,   1.79573858
    689,    12.081708,  -1.79573858
    690,  -25.7939949,  0.917051196
    691,   25.7939949, -0.917051077
    692,  -7.05456781,  0.948821366
    693,   7.05456781, -0.948821366
    694,    9.8938036,  0.824427187
    695,   -9.8938036, -0.824427187
    696,  -8.93220425,  0.938308299
    697,   8.93220425, -0.938308299
    698,  -9.85671043,  0.910742581
    699,   9.85671043, -0.910742581
    700,    8.0010252, -0.946911931
    701,   -8.0010252,  0.946911931
    702,  -10.8002338,  0.914861143
    703,   10.8002338, -0.914861143
    704,   6.11333704, -0.916762173
    705,  -6.11333704,  0.916762173
    706,   24.8626614, -0.892173469
    707,  -24.8626614,  0.892173886
    708,   19.6744423,   -1.6930505
    709,  -19.6744423,   1.69305027
    710,  -26.7259369, -0.786747992
    711,   26.7259369,  0.786747992
    712,   10.3703737, -0.0407835022
    713,  -10.3703737, 0.0407835022
    714,  -19.6597271, -0.0326058343
    715,   19.6597252, 0.0326058492
    716,  -27.6452732,  0.832024097
    717,   27.6452732, -0.832024097
    718,  -4.73217392,   1.73016739
    719,   4.73217392,  -1.73016739
    720,  -25.3019447, 0.0343247354
    721,   25.3019447, -0.0343245938
    722,  -6.55891705, 0.0855719075
    723,   6.55891705, -0.0855719075
    724,   -8.4709959, 0.0865731686
    725,    8.4709959, -0.0865731686
    726,  -19.7346325,  -1.92435527
    727,   19.7346325,   1.92435527
    728,   -21.272213,    -1.030846
    729,    21.272213,   1.03084624
    730,   0.98565805,   1.94898188
    731,  -0.98565805,  -1.94898188
    732,    2.4893477,   1.04314053
    733,   -2.4893477,  -1.04314053
    734,   19.7563896,   3.01955986
    735,  -19.7563896,  -3.01955986
    736, -0.978909314,  -2.98791456
    737,  0.978909314,   2.98791456
    738,   23.0141773, -0.842823446
    739,   -22.946043, -0.850671291
    740,    22.946043,  0.850671649
    741,  -23.0141792,  0.842823803
    742,   8.94696903,  0.796756268
    743,  -8.94696903, -0.796756268
    744,  -11.7127867,    1.0152365
    745,   11.7127867,   -1.0152365
    746,   5.18702221, -0.874758065
    747,  -5.18702221,  0.874758065
    748,   4.26116419, -0.856186092
    749,  -4.26116419,  0.856186092
    750,  -4.19487667, -0.839045286
    751,   4.19487667,  0.839045286
    752,   23.9383698, -0.864346564
    753,  -23.9383698,    0.8643471
    754,   20.1604576, -0.830590606
    755,  -20.1604595,  0.830590248
    756,   19.2067242,  -2.54162645
    757,  -19.2067242,   2.54162621
    758,  -25.7734718, -0.824409664
    759,   25.7734718,  0.824409723
    760,   19.2008324,   0.96083343
    761,  -19.2008324, -0.960833371
    762,  -28.4334984,  0.695875108
    763,   28.4334984, -0.695875108
    764,  -5.13100004,  -0.83964467
    765,   5.13100004,   0.83964467
    766,  -23.8881187, -0.872791946
    767,   23.8881187,  0.872792125
    768,   27.1758976, -0.0543089099
    769,  -27.1758976, 0.0543089211
    770,  -23.4522076, -0.00331920804
    771,   23.4522076, 0.00331954286
    772,  -4.69985819, 0.0144337555
    773,   4.69985819, -0.0144337555
    774,   18.2794857,   1.07730031
    775,  -18.2794857,  -1.07730031
    776,   21.1282387, -0.823138714
    777,  -21.1282387,  0.823138475
    778,   20.1933899,   0.95158124
    779,  -20.1933899,  -0.95158112
    780,  -1.40594578,  -1.06552863
    781,   1.40594578,   1.06552863
    782,   8.47351265,   1.65885448
    783,  -8.47351265,  -1.65885448
    784,   22.0754147, -0.834790111
    785,  -22.1428146,  -0.72117424
    786,   22.1428146,  0.721174538
    787,  -22.0754147,  0.834790289
    788,    3.3389957, -0.835170925
    789,   -3.3389957,  0.835170925
    790,   -3.3864429, -0.716531456
    791,    3.3864429,  0.716531456
    792,   20.1480923,  -2.53017974
    793,  -20.1480923,    2.5301795
    794,   18.2488441,  -2.57779455
    795,  -18.2488441,   2.57779455
    796,   25.3269691,   1.70841742
    797,  -25.3269691,   -1.7084173
    798,  -28.4487495, -0.632549644
    799,   28.4487495,  0.632549644
    800,  -6.08071232, -0.799613476
    801,   6.08071232,  0.799613476
    802,   -24.836586, -0.852613509
    803,    24.836586,  0.852613568
    804,  -7.03850889, -0.774635911
    805,   7.03850889,  0.774635911
    806,   7.99561501,  0.778533995
    807,  -7.99561501, -0.778533995
    808,  -21.6417713, -0.0260840692
    809,   21.6417713, 0.0260842163
    810,   -2.8720181, -0.0300097093
    811,    2.8720181, 0.0300097093
    812,   21.5919113,  -1.69061112
    813,  -21.5919132,   1.69061124
    814,   2.82360411,   -1.6586355
    815,  -2.82360411,    1.6586355
    816,  -19.6796551,   3.23983955
    817,   19.6796551,  -3.23983979
    818,   17.8461113,  -1.78257072
    819,  -17.8461113,   1.78257072
    820,    6.5741024,   1.66391897
    821,   -6.5741024,  -1.66391897
    822,   21.1187038,  -2.56062555
    823,  -21.1187057,   2.56062555
    824, -0.289098442,  -2.49907303
    825,  0.289098442,   2.49907303
    826,  -19.0518703,  -2.56011891
    827,   19.0518703,   2.56011891
    828,  -18.2546806,  -2.55969906
    829,   18.2546806,   2.55969906
    830,  0.523790479,  -2.43493128
    831, -0.523790479,   2.43493128
    832, -0.618244946,  -1.21156681
    833,  0.618244946,   1.21156681
    834,    2.4021697, -0.804353595
    835,   -2.4021697,  0.804353595
    836, -0.765574574, -0.459299356
    837,  0.765574574,  0.459299356
    838, 0.0711923689, -0.886190891
    839, -0.0711923689,  0.886190891
    840, -0.927455902,   1.47461128
    841,  0.927455902,  -1.47461128
    842,  -18.0148621,  -1.83358598
    843,   18.0148621,   1.83358598
    844,   2.28659749,  -2.33108091
    845,  -2.28659749,   2.33108091
    846,  -1.58836925,  0.849761128
    847,   1.58836925, -0.849761128
    848,   1.45523381,  -2.38424706
    849,  -1.45523381,   2.38424706
    850,  -0.85639149,  0.448204041
    851,   0.85639149, -0.448204041
    852,   1.00603855,  -3.12174296
    853,  -1.00603855,   3.12174296
*Element, type=CPS3
   1, 504, 343,   1
   2, 778, 760, 715
   3, 809, 786, 729
   4, 740, 682, 214
   5, 803, 721, 759
   6, 768, 686, 711
   7, 799, 217, 686
   8, 483, 482,  99
   9, 493, 483, 328
  10, 570, 483, 493
  11, 476, 329, 348
  12, 364, 251, 349
  13, 349, 251,  26
  14, 365,  26, 252
  15, 350, 252,  27
  16, 632, 516, 175
  17, 759, 721, 111
  18, 568, 541, 330
  19,  22, 102,  23
  20, 568, 330, 249
  21, 494, 102, 330
  22, 339,  23, 102
  23, 502, 342,  13
  24, 508,  23, 339
  25, 618, 139, 559
  26, 695, 661, 643
  27, 698, 170, 644
  28, 614, 193, 560
  29, 439, 367, 194
  30, 560, 366, 439
  31, 367,  46, 274
  32, 552, 367, 440
  33, 688, 666, 496
  34,  13, 172,  14
  35, 342, 172,  13
  36, 502,  13,  24
  37, 702, 644, 171
  38, 546, 384, 430
  39, 556, 383, 429
  40, 558, 382, 428
  41, 427, 381, 260
  42, 426, 380, 259
  43, 362, 361, 258
  44, 514, 353, 179
  45, 352, 177, 347
  46, 424, 378, 254
  47, 351, 253,  28
  48, 368,  27, 253
  49, 503, 345,   7
  50, 506,   5, 340
  51, 506, 145, 503
  52, 612, 558, 183
  53, 610, 183, 556
  54, 620, 556, 184
  55, 604, 184, 546
  56, 628, 546, 185
  57, 805, 801, 723
  58, 704, 639, 693
  59, 591, 535, 121
  60, 369,  81, 310
  61, 462, 369, 310
  62, 370,  82, 311
  63, 463, 370, 311
  64, 622, 555, 609
  65, 697, 641, 122
  66, 806, 742, 782
  67, 806, 782, 161
  68, 820, 801, 805
  69, 668, 158, 495
  70, 606, 495, 550
  71, 668, 606, 159
  72, 619, 182, 558
  73, 569, 333, 246
  74, 334,   3,   2
  75, 562, 334, 179
  76, 498, 334, 211
  77, 343, 211,   1
  78, 774, 760, 212
  79,   2,   1, 211
  80, 335,  21,  20
  81, 563, 335, 224
  82, 360, 359,  70
  83, 363, 360, 298
  84, 371, 363,  71
  85, 452, 371, 299
  86, 330, 102,  22
  87, 499, 335, 233
  88, 344, 233,  19
  89, 505, 344,  19
  90, 507,  17, 341
  91, 341,  17, 210
  92, 819, 210, 500
  93,  17,  16, 210
  94, 331, 210,  16
  95, 523, 443, 198
  96, 444, 372, 278
  97, 444, 198, 372
  98, 373,  51, 280
  99, 446, 373, 280
 100, 574, 518, 200
 101, 808, 777, 787
 102, 728, 236, 670
 103, 576, 221, 520
 104, 450, 294,  68
 105, 450, 374, 294
 106, 346,  68, 295
 107, 358, 222, 346
 108, 735, 726, 674
 109, 779, 241, 728
 110, 755, 663, 709
 111, 816, 757, 198
 112, 793, 208, 709
 113, 823, 518, 574
 114, 564, 532, 197
 115, 442, 376, 197
 116, 532, 375, 442
 117, 376,  49, 277
 118, 564, 331, 248
 119, 336,  15,  14
 120, 496, 336, 172
 121, 542, 336, 195
 122, 542, 377, 441
 123, 552, 440, 195
 124, 348, 329, 250
 125, 378,  28, 254
 126, 347,  29, 255
 127, 379,  30, 257
 128, 361, 353,  31
 129, 380, 362,  32
 130, 381,  33, 260
 131, 382,  34, 261
 132, 383,  35, 262
 133, 384,  36, 263
 134, 385,  37, 264
 135, 536, 385, 431
 136, 657, 536, 186
 137, 751, 685, 163
 138, 748, 128, 719
 139, 583, 525, 123
 140, 386,  80, 309
 141, 461, 386, 309
 142, 387,  38, 265
 143, 526, 387, 432
 144, 658, 526, 187
 145, 811, 791, 732
 146, 834, 788, 811
 147, 848, 844, 130
 148, 389, 307, 308
 149, 389, 388, 307
 150, 390,  39, 266
 151, 433, 187, 390
 152, 737, 730, 676
 153, 833, 730, 165
 154, 851, 841, 847
 155, 824, 731, 736
 156, 459, 391, 306
 157, 736, 459, 127
 158, 392,  40, 267
 159, 393, 392, 267
 160, 849, 840, 831
 161, 850, 846, 152
 162, 780, 134, 731
 163, 659, 527, 129
 164, 458, 394, 305
 165, 527, 458, 129
 166, 395,  41, 269
 167, 435, 395, 269
 168, 582, 524, 190
 169, 835, 815, 789
 170, 733, 136, 673
 171, 656, 537, 131
 172, 457, 396, 304
 173, 537, 396, 457
 174, 397,  42, 270
 175, 436, 397, 270
 176, 590, 534, 191
 177, 772, 749, 747
 178, 764, 684, 750
 179, 629, 547, 133
 180, 456, 398, 303
 181, 547, 398, 456
 182, 399,  43, 271
 183, 437, 399, 271
 184, 602, 544, 192
 185, 692, 638, 169
 186, 821, 800, 804
 187, 621, 557, 135
 188, 455, 400, 302
 189, 557, 400, 455
 190, 401,  44, 272
 191, 438, 401, 272
 192, 608, 554, 193
 193, 696, 640, 170
 194, 807, 743, 783
 195, 613, 559, 137
 196, 454, 402, 301
 197, 559, 402, 454
 198, 403,  52, 281
 199, 447, 403, 281
 200, 586, 528, 201
 201, 753, 683, 206
 202, 766, 681, 739
 203, 588, 220, 513
 204, 404, 293, 357
 205, 357, 293,  67
 206, 405,  53, 282
 207, 448, 405, 282
 208, 598, 538, 202
 209, 690, 636, 205
 210, 758, 720, 244
 211, 600, 219, 517
 212, 406, 292, 356
 213, 356, 292,  66
 214, 407,  54, 283
 215, 449, 407, 283
 216, 594, 548, 203
 217, 716, 679, 646
 218, 710, 664, 238
 219, 596, 571, 218
 220, 408, 291, 355
 221, 355, 291,  65
 222, 409,  55, 284
 223, 486, 285,  58
 224, 572, 480, 487
 225, 762, 716, 204
 226, 485, 484,  61
 227, 571, 485, 489
 228, 354, 290,  64
 229, 477, 289, 354
 230, 410,  69, 297
 231, 515, 359, 224
 232, 828, 234, 826
 233, 828, 515, 499
 234, 411,  72, 300
 235, 453, 411, 300
 236, 607, 494, 551
 237, 412,  83, 312
 238, 464, 413, 117
 239, 615, 117, 561
 240, 703, 645, 120
 241, 660, 578, 159
 242, 694, 660, 642
 243, 413,  84, 313
 244, 561, 413, 465
 245, 689, 667, 497
 246,   7, 118,   8
 247, 345, 118,   7
 248, 503,   7,   6
 249, 414,  85, 314
 250, 553, 414, 466
 251, 497, 337, 118
 252, 689, 118, 345
 253, 415,  86, 315
 254, 543, 415, 467
 255, 337,   9,   8
 256, 337,   8, 118
 257, 416,  87, 316
 258, 533, 416, 468
 259, 565, 332, 247
 260, 565, 533, 226
 261, 417,  88, 317
 262, 522, 417, 469
 263, 756, 708, 104
 264, 754, 715, 662
 265, 662, 115, 581
 266, 509, 115, 504
 267, 509,  11, 338
 268, 418,  89, 318
 269, 470, 227, 418
 270, 822, 575, 812
 271, 809, 776, 784
 272, 776, 114, 754
 273, 419,  90, 320
 274, 472, 419, 320
 275, 649, 529, 587
 276, 752, 680, 107
 277, 738, 106, 680
 278, 420,  91, 321
 279, 473, 420, 321
 280, 634, 539, 599
 281, 691, 637, 108
 282, 706, 637, 691
 283, 421,  92, 322
 284, 474, 421, 322
 285, 626, 231, 549
 286, 717, 678, 647
 287, 678, 108, 647
 288, 422,  93, 323
 289, 475, 422, 323
 290, 491, 478, 326
 291, 573, 478, 491
 292, 479,  97, 327
 293, 491, 479, 109
 294, 423,  94, 324
 295, 490, 325,  96
 296, 818, 103, 501
 297, 332, 103,  10
 298, 522, 501, 226
 299, 794, 756, 104
 300, 617, 615, 561
 301, 603, 545, 119
 302, 630, 545, 603
 303, 609, 555, 117
 304, 655, 535, 591
 305, 583, 125, 525
 306, 830, 132, 824
 307, 736, 677, 129
 308, 584, 131, 527
 309, 592, 133, 537
 310, 605, 135, 547
 311, 611, 137, 557
 312, 699, 122, 645
 313, 693, 639, 124
 314, 700, 641, 697
 315, 661, 579, 144
 316, 669, 102, 494
 317, 773, 748, 746
 318, 811, 788, 149
 319, 851, 847, 150
 320, 832, 731, 132
 321, 810, 790, 733
 322, 750, 684, 136
 323, 804, 800, 722
 324, 807, 783, 140
 325, 765, 685, 751
 326, 732, 163, 672
 327, 781, 164, 730
 328, 840, 839, 165
 329, 835, 789, 810
 330, 749, 167, 718
 331, 705, 638, 692
 332, 701, 640, 696
 333, 666, 552, 496
 334, 616, 614, 560
 335, 597, 570, 173
 336, 624, 597, 510
 337, 711, 686, 665
 338, 601, 174, 516
 339, 589, 175, 511
 340, 651, 511, 176
 341, 767, 682, 740
 342, 577, 176, 521
 343, 671, 577, 653
 344, 729, 214, 671
 345, 734, 675, 177
 346, 734, 727, 675
 347, 778, 727, 760
 348, 498, 211, 343
 349, 829, 514, 498
 350, 569, 540, 333
 351, 333, 158,   4
 352,   5,   4, 158
 353, 593, 185, 536
 354, 585, 186, 526
 355, 737, 676, 187
 356, 831, 825, 188
 357, 582, 189, 524
 358, 654, 534, 590
 359, 631, 544, 602
 360, 623, 554, 608
 361, 819, 795, 209
 362, 795, 757, 209
 363, 648, 528, 586
 364, 635, 538, 598
 365, 627, 202, 548
 366, 487, 480, 286
 367, 481,  59, 287
 368, 679, 205, 646
 369, 707, 636, 690
 370, 741, 207, 683
 371, 755, 714, 663
 372, 777, 241, 755
 373, 670, 576, 652
 374, 674, 235, 670
 375, 792, 105, 708
 376, 575, 519, 229
 377, 587, 529, 230
 378, 599, 539, 231
 379, 595, 549, 232
 380, 808, 785, 728
 381, 779, 726, 761
 382, 650, 513, 221
 383, 633, 517, 220
 384, 625, 596, 512
 385, 489, 485, 288
 386, 739, 681, 236
 387, 802, 720, 758
 388, 769, 687, 710
 389, 798, 488, 484
 390, 775, 761, 234
 391, 103,  11,  10
 392, 233,  20,  19
 393, 562, 246,   3
 394, 567, 565,   9
 395, 566, 564,  15
 396, 563, 249,  21
 397, 364, 348,  25
 398, 365, 349,  26
 399, 368, 350,  27
 400, 378, 351,  28
 401, 424,  29, 347
 402, 425, 352, 256
 403, 425, 256,  30
 404, 353, 257,  31
 405, 362, 258,  32
 406, 426, 259,  33
 407, 427, 260,  34
 408, 428,  35, 383
 409, 429,  36, 384
 410, 430,  37, 385
 411, 431,  38, 387
 412, 432,  39, 390
 413, 433,  40, 392
 414, 393, 188, 392
 415, 434, 268,  41
 416, 435, 269,  42
 417, 436, 270,  43
 418, 437, 271,  44
 419, 438,  45, 366
 420, 439,  46, 367
 421, 440,  47, 377
 422, 441,  48, 375
 423, 442,  49, 376
 424, 443,  50, 372
 425, 445, 444, 279
 426, 445, 279,  51
 427, 446, 280,  52
 428, 447, 281,  53
 429, 448, 282,  54
 430, 449, 283,  55
 431, 284,  57, 285
 432, 486, 480, 203
 433, 487, 286,  59
 434, 488, 287,  60
 435, 489,  62, 477
 436, 289,  63, 290
 437, 408, 354,  64
 438, 406, 355,  65
 439, 404, 356,  66
 440, 374, 357,  67
 441, 450,  68, 346
 442, 451, 358, 296
 443, 451, 296,  69
 444, 359, 297,  70
 445, 363, 298,  71
 446, 452, 299,  72
 447, 453, 300,  73
 448, 454,  74, 400
 449, 455,  75, 398
 450, 456,  76, 396
 451, 457,  77, 394
 452, 458,  78, 391
 453, 459,  79, 388
 454, 389, 127, 388
 455, 460, 308,  80
 456, 461, 309,  81
 457, 462, 310,  82
 458, 463, 311,  83
 459, 464,  84, 413
 460, 465,  85, 414
 461, 466,  86, 415
 462, 467,  87, 416
 463, 468,  88, 417
 464, 469,  89, 418
 465, 471, 470, 319
 466, 471, 319,  90
 467, 472, 320,  91
 468, 473, 321,  92
 469, 474, 322,  93
 470, 475, 323,  94
 471, 324,  95, 325
 472, 490, 478, 232
 473, 491, 326,  97
 474, 492, 327,  98
 475, 493, 100, 476
 476, 329,  56, 250
 477, 494, 330, 141
 478, 330,  22, 249
 479, 500, 331, 197
 480, 331,  16, 248
 481, 501, 332, 226
 482, 332,  10, 247
 483, 495, 333, 181
 484, 333,   4, 246
 485, 334,   2, 211
 486, 562, 179, 530
 487, 335,  20, 233
 488, 563, 224, 531
 489, 566, 336, 542
 490, 336,  14, 172
 491, 543, 337, 101
 492, 567, 337, 543
 493, 338,  11, 103
 494, 818, 581, 338
 495, 579, 339, 144
 496, 508, 157, 502
 497, 340,   5, 158
 498, 578, 340, 159
 499, 819, 580, 341
 500, 507, 240, 505
 501, 744, 342, 502
 502, 688, 171, 666
 503, 843, 829, 498
 504, 504,   1,  12
 505, 842, 828, 499
 506, 505,  19,  18
 507, 745, 345, 503
 508, 689, 120, 667
 509, 358, 346, 295
 510, 520, 374, 450
 511, 352, 347, 255
 512, 521, 378, 424
 513, 348, 250,  25
 514, 476, 348, 173
 515, 510, 349, 174
 516, 510, 364, 349
 517, 516, 350, 175
 518, 516, 365, 350
 519, 511, 351, 176
 520, 511, 368, 351
 521, 352, 255, 256
 522, 734, 352, 178
 523, 361,  31, 258
 524, 514, 379, 353
 525, 477, 354, 218
 526, 354, 289, 290
 527, 512, 355, 219
 528, 512, 408, 355
 529, 517, 356, 220
 530, 517, 406, 356
 531, 513, 357, 221
 532, 513, 404, 357
 533, 358, 295, 296
 534, 735, 358, 223
 535, 360,  70, 298
 536, 515, 410, 359
 537, 531, 360, 363
 538, 360, 224, 359
 539, 530, 361, 362
 540, 361, 179, 353
 541, 380,  32, 259
 542, 530, 362, 180
 543, 371,  71, 299
 544, 531, 363, 143
 545, 364, 173, 348
 546, 364,  25, 251
 547, 365, 252, 350
 548, 365, 174, 349
 549, 554, 438, 193
 550, 366,  45, 273
 551, 440, 377, 195
 552, 560, 439, 194
 553, 368, 253, 351
 554, 368, 175, 350
 555, 535, 369, 462
 556, 461, 369, 123
 557, 545, 370, 463
 558, 462, 370, 121
 559, 541, 371, 452
 560, 371, 143, 363
 561, 523, 376, 443
 562, 372,  50, 278
 563, 518, 373, 446
 564, 445, 373, 199
 565, 374, 221, 357
 566, 374,  67, 294
 567, 542, 441, 196
 568, 375,  48, 276
 569, 443, 376, 277
 570, 532, 442, 197
 571, 377,  47, 275
 572, 441, 377, 275
 573, 424, 254,  29
 574, 378, 176, 351
 575, 425, 379, 178
 576, 379, 257, 353
 577, 540, 380, 426
 578, 380, 180, 362
 579, 550, 381, 427
 580, 426, 381, 181
 581, 428, 383, 183
 582, 427, 382, 182
 583, 429, 384, 184
 584, 558, 428, 183
 585, 430, 385, 185
 586, 556, 429, 184
 587, 431, 387, 186
 588, 546, 430, 185
 589, 525, 386, 461
 590, 460, 386, 125
 591, 432, 390, 187
 592, 536, 431, 186
 593, 459, 129, 391
 594, 388,  79, 307
 595, 460, 389, 308
 596, 852, 389, 125
 597, 433, 392, 188
 598, 526, 432, 187
 599, 527, 394, 458
 600, 391,  78, 306
 601, 393, 267, 268
 602, 737, 433, 188
 603, 434, 393, 268
 604, 853, 393, 189
 605, 537, 457, 131
 606, 394,  77, 305
 607, 524, 395, 435
 608, 434, 395, 189
 609, 547, 456, 133
 610, 396,  76, 304
 611, 534, 397, 436
 612, 435, 397, 190
 613, 557, 455, 135
 614, 398,  75, 303
 615, 544, 399, 437
 616, 436, 399, 191
 617, 559, 454, 137
 618, 400,  74, 302
 619, 554, 401, 438
 620, 437, 401, 192
 621, 453, 402, 139
 622, 402,  73, 301
 623, 528, 403, 447
 624, 446, 403, 200
 625, 404, 220, 356
 626, 404,  66, 293
 627, 538, 405, 448
 628, 447, 405, 201
 629, 406, 219, 355
 630, 406,  65, 292
 631, 548, 407, 449
 632, 448, 407, 202
 633, 408, 218, 354
 634, 408,  64, 291
 635, 449, 409, 203
 636, 409, 284, 285
 637, 451, 410, 223
 638, 410, 297, 359
 639, 551, 411, 453
 640, 452, 411, 141
 641, 555, 412, 464
 642, 463, 412, 119
 643, 465, 414, 116
 644, 555, 464, 117
 645, 466, 415, 101
 646, 561, 465, 116
 647, 467, 416, 225
 648, 553, 466, 101
 649, 468, 417, 226
 650, 543, 467, 225
 651, 469, 418, 227
 652, 533, 468, 226
 653, 470, 418, 318
 654, 522, 469, 227
 655, 519, 419, 472
 656, 471, 419, 228
 657, 529, 420, 473
 658, 472, 420, 229
 659, 539, 421, 474
 660, 473, 421, 230
 661, 549, 422, 475
 662, 474, 422, 231
 663, 475, 423, 232
 664, 423, 324, 325
 665, 424, 347, 177
 666, 521, 424, 177
 667, 425,  30, 379
 668, 425, 178, 352
 669, 426,  33, 381
 670, 540, 426, 181
 671, 427,  34, 382
 672, 550, 427, 182
 673, 428, 382, 261
 674, 428, 261,  35
 675, 429, 383, 262
 676, 429, 262,  36
 677, 430, 384, 263
 678, 430, 263,  37
 679, 431, 385, 264
 680, 431, 264,  38
 681, 432, 387, 265
 682, 432, 265,  39
 683, 433, 390, 266
 684, 433, 266,  40
 685, 434,  41, 395
 686, 434, 189, 393
 687, 435,  42, 397
 688, 524, 435, 190
 689, 436,  43, 399
 690, 534, 436, 191
 691, 437,  44, 401
 692, 544, 437, 192
 693, 438, 272,  45
 694, 438, 366, 193
 695, 439, 366, 273
 696, 439, 273,  46
 697, 440, 367, 274
 698, 440, 274,  47
 699, 441, 275,  48
 700, 441, 375, 196
 701, 442, 375, 276
 702, 442, 276,  49
 703, 443, 277,  50
 704, 443, 372, 198
 705, 444, 278, 279
 706, 816, 444, 199
 707, 445,  51, 373
 708, 445, 199, 444
 709, 446,  52, 403
 710, 518, 446, 200
 711, 447,  53, 405
 712, 528, 447, 201
 713, 448,  54, 407
 714, 538, 448, 202
 715, 449,  55, 409
 716, 548, 449, 203
 717, 450, 346, 222
 718, 520, 450, 222
 719, 451,  69, 410
 720, 451, 223, 358
 721, 452,  72, 411
 722, 541, 452, 141
 723, 453,  73, 402
 724, 551, 453, 139
 725, 454, 301,  74
 726, 454, 400, 137
 727, 455, 302,  75
 728, 455, 398, 135
 729, 456, 303,  76
 730, 456, 396, 133
 731, 457, 304,  77
 732, 457, 394, 131
 733, 458, 305,  78
 734, 458, 391, 129
 735, 459, 306,  79
 736, 459, 388, 127
 737, 460,  80, 386
 738, 460, 125, 389
 739, 461,  81, 369
 740, 525, 461, 123
 741, 462,  82, 370
 742, 535, 462, 121
 743, 463,  83, 412
 744, 545, 463, 119
 745, 464, 412, 312
 746, 464, 312,  84
 747, 465, 413, 313
 748, 465, 313,  85
 749, 466, 414, 314
 750, 466, 314,  86
 751, 467, 415, 315
 752, 467, 315,  87
 753, 468, 416, 316
 754, 468, 316,  88
 755, 469, 417, 317
 756, 469, 317,  89
 757, 470, 318, 319
 758, 817, 470, 228
 759, 471,  90, 419
 760, 471, 228, 470
 761, 472,  91, 420
 762, 519, 472, 229
 763, 473,  92, 421
 764, 529, 473, 230
 765, 474,  93, 422
 766, 539, 474, 231
 767, 475,  94, 423
 768, 549, 475, 232
 769, 570, 493, 173
 770, 476, 100, 329
 771, 571, 489, 218
 772, 477,  62, 289
 773, 490, 232, 423
 774, 478,  96, 326
 775, 492, 479, 327
 776, 763, 717, 109
 777, 486, 203, 409
 778, 480,  58, 286
 779, 487, 481, 204
 780, 488, 481, 287
 781, 799, 492, 482
 782, 482,  98,  99
 783, 483, 217, 482
 784, 483,  99, 328
 785, 484,  60,  61
 786, 798, 239, 687
 787, 485, 239, 484
 788, 485,  61, 288
 789, 486, 409, 285
 790, 486,  58, 480
 791, 487,  59, 481
 792, 572, 487, 204
 793, 488,  60, 484
 794, 762, 488, 245
 795, 489, 288,  62
 796, 489, 477, 218
 797, 490, 423, 325
 798, 490,  96, 478
 799, 491,  97, 479
 800, 573, 491, 109
 801, 492,  98, 482
 802, 763, 492, 110
 803, 493, 328, 100
 804, 493, 476, 173
 805, 551, 494, 141
 806, 669, 607, 144
 807, 495, 158, 333
 808, 550, 495, 181
 809, 496, 195, 336
 810, 688, 172, 342
 811, 667, 553, 497
 812, 497, 101, 337
 813, 829, 212, 827
 814, 498, 179, 334
 815, 499, 224, 335
 816, 499, 233, 344
 817, 500, 210, 331
 818, 523, 500, 197
 819, 818, 794, 104
 820, 501, 103, 332
 821, 508, 502,  24
 822, 744, 502, 157
 823, 506, 503,   6
 824, 745, 503, 145
 825, 509, 504,  12
 826, 774, 115, 760
 827, 507, 505,  18
 828, 775, 240, 761
 829, 506,   6,   5
 830, 578, 506, 340
 831, 507,  18,  17
 832, 580, 507, 341
 833, 508,  24,  23
 834, 579, 508, 339
 835, 509,  12,  11
 836, 581, 509, 338
 837, 624, 174, 601
 838, 510, 173, 364
 839, 651, 589, 511
 840, 511, 175, 368
 841, 625, 219, 600
 842, 512, 218, 408
 843, 650, 588, 513
 844, 513, 220, 404
 845, 514, 179, 498
 846, 514, 178, 379
 847, 515, 224, 499
 848, 515, 223, 410
 849, 632, 601, 516
 850, 516, 174, 365
 851, 633, 600, 517
 852, 517, 219, 406
 853, 648, 574, 200
 854, 518, 199, 373
 855, 649, 575, 229
 856, 519, 228, 419
 857, 652, 520, 222
 858, 520, 221, 374
 859, 653, 521, 177
 860, 521, 176, 378
 861, 794, 522, 227
 862, 522, 226, 417
 863, 795, 523, 198
 864, 523, 197, 376
 865, 654, 582, 190
 866, 524, 189, 395
 867, 655, 583, 123
 868, 525, 125, 386
 869, 658, 585, 526
 870, 526, 186, 387
 871, 659, 584, 527
 872, 527, 131, 394
 873, 635, 586, 201
 874, 528, 200, 403
 875, 634, 587, 230
 876, 529, 229, 420
 877, 562, 530, 180
 878, 530, 179, 361
 879, 563, 531, 143
 880, 531, 224, 360
 881, 564, 197, 331
 882, 532, 196, 375
 883, 565, 226, 332
 884, 533, 225, 416
 885, 631, 590, 191
 886, 534, 190, 397
 887, 630, 591, 121
 888, 535, 123, 369
 889, 657, 593, 536
 890, 536, 185, 385
 891, 656, 592, 537
 892, 537, 133, 396
 893, 627, 598, 202
 894, 538, 201, 405
 895, 626, 599, 231
 896, 539, 230, 421
 897, 540, 181, 333
 898, 540, 180, 380
 899, 541, 141, 330
 900, 541, 143, 371
 901, 566, 542, 196
 902, 542, 195, 377
 903, 567, 543, 225
 904, 543, 101, 415
 905, 623, 602, 192
 906, 544, 191, 399
 907, 622, 603, 119
 908, 545, 121, 370
 909, 628, 604, 546
 910, 546, 184, 384
 911, 629, 605, 547
 912, 547, 135, 398
 913, 594, 203, 572
 914, 548, 202, 407
 915, 595, 232, 573
 916, 549, 231, 422
 917, 606, 550, 182
 918, 550, 181, 381
 919, 607, 551, 139
 920, 551, 141, 411
 921, 552, 195, 496
 922, 552, 194, 367
 923, 553, 101, 497
 924, 553, 116, 414
 925, 614, 608, 193
 926, 554, 192, 401
 927, 615, 609, 117
 928, 555, 119, 412
 929, 620, 610, 556
 930, 556, 183, 383
 931, 621, 611, 557
 932, 557, 137, 400
 933, 612, 183, 610
 934, 558, 182, 382
 935, 613, 137, 611
 936, 559, 139, 402
 937, 666, 616, 194
 938, 560, 193, 366
 939, 667, 617, 116
 940, 561, 117, 413
 941, 569, 562, 180
 942, 562,   3, 334
 943, 568, 563, 143
 944, 563,  21, 335
 945, 564, 248,  15
 946, 564, 196, 532
 947, 565, 247,   9
 948, 565, 225, 533
 949, 566, 196, 564
 950, 566,  15, 336
 951, 567, 225, 565
 952, 567,   9, 337
 953, 568, 249, 563
 954, 568, 143, 541
 955, 569, 246, 562
 956, 569, 180, 540
 957, 597, 173, 510
 958, 570, 217, 483
 959, 596, 218, 512
 960, 571, 239, 485
 961, 594, 572, 204
 962, 572, 203, 480
 963, 595, 573, 109
 964, 573, 232, 478
 965, 813, 574, 207
 966, 823, 574, 813
 967, 812, 575, 106
 968, 822, 519, 575
 969, 652, 576, 520
 970, 650, 576, 236
 971, 653, 577, 521
 972, 651, 577, 214
 973, 660, 159, 642
 974, 578, 145, 506
 975, 661, 144, 643
 976, 579, 157, 508
 977, 663, 580, 209
 978, 580, 240, 507
 979, 662, 581, 104
 980, 581, 115, 509
 981, 815, 582, 167
 982, 845, 582, 815
 983, 814, 583, 128
 984, 844, 583, 814
 985, 673, 584, 659
 986, 656, 584, 136
 987, 672, 585, 658
 988, 657, 585, 163
 989, 683, 586, 206
 990, 683, 648, 586
 991, 680, 587, 107
 992, 680, 649, 587
 993, 681, 588, 650
 994, 633, 588, 237
 995, 682, 589, 651
 996, 632, 589, 215
 997, 718, 590, 168
 998, 718, 654, 590
 999, 719, 591, 126
1000, 719, 655, 591
1001, 684, 592, 656
1002, 629, 592, 138
1003, 685, 593, 657
1004, 628, 593, 162
1005, 646, 594, 204
1006, 646, 627, 594
1007, 647, 595, 109
1008, 647, 626, 595
1009, 664, 596, 625
1010, 596, 239, 571
1011, 665, 597, 624
1012, 597, 217, 570
1013, 636, 635, 598
1014, 636, 598, 205
1015, 637, 634, 599
1016, 637, 599, 108
1017, 797, 600, 633
1018, 625, 600, 238
1019, 796, 601, 632
1020, 624, 601, 216
1021, 638, 631, 602
1022, 638, 602, 169
1023, 639, 630, 603
1024, 639, 603, 124
1025, 820, 604, 628
1026, 620, 604, 161
1027, 821, 605, 629
1028, 621, 605, 140
1029, 619, 606, 182
1030, 668, 159, 340
1031, 618, 607, 139
1032, 669, 144, 339
1033, 640, 623, 608
1034, 640, 608, 170
1035, 641, 622, 609
1036, 641, 609, 122
1037, 782, 610, 620
1038, 612, 610, 160
1039, 783, 611, 621
1040, 613, 611, 142
1041, 642, 612, 160
1042, 642, 619, 612
1043, 643, 613, 142
1044, 643, 618, 613
1045, 644, 614, 616
1046, 614, 170, 608
1047, 645, 615, 617
1048, 615, 122, 609
1049, 616, 560, 194
1050, 644, 616, 171
1051, 617, 561, 116
1052, 645, 617, 120
1053, 618, 144, 607
1054, 618, 559, 613
1055, 619, 159, 606
1056, 619, 558, 612
1057, 620, 184, 604
1058, 782, 620, 161
1059, 621, 135, 605
1060, 783, 621, 140
1061, 622, 124, 603
1062, 622, 119, 555
1063, 623, 169, 602
1064, 623, 192, 554
1065, 624, 510, 174
1066, 665, 624, 216
1067, 625, 512, 219
1068, 664, 625, 238
1069, 626, 108, 599
1070, 626, 549, 595
1071, 627, 205, 598
1072, 627, 548, 594
1073, 628, 185, 593
1074, 820, 628, 162
1075, 629, 133, 592
1076, 821, 629, 138
1077, 630, 126, 591
1078, 630, 121, 545
1079, 631, 168, 590
1080, 631, 191, 544
1081, 632, 175, 589
1082, 796, 632, 215
1083, 633, 220, 588
1084, 797, 633, 237
1085, 634, 107, 587
1086, 634, 230, 539
1087, 635, 206, 586
1088, 635, 201, 538
1089, 690, 205, 679
1090, 636, 206, 635
1091, 691, 108, 678
1092, 637, 107, 634
1093, 701, 692, 169
1094, 638, 168, 631
1095, 700, 693, 124
1096, 639, 126, 630
1097, 698, 696, 170
1098, 640, 169, 623
1099, 699, 697, 122
1100, 641, 124, 622
1101, 742, 694, 160
1102, 642, 159, 619
1103, 743, 695, 142
1104, 643, 144, 618
1105, 702, 698, 644
1106, 644, 170, 614
1107, 703, 699, 645
1108, 645, 122, 615
1109, 762, 204, 481
1110, 646, 205, 627
1111, 763, 109, 479
1112, 647, 108, 626
1113, 648, 207, 574
1114, 648, 200, 528
1115, 649, 106, 575
1116, 649, 229, 529
1117, 650, 221, 576
1118, 681, 650, 236
1119, 651, 176, 577
1120, 682, 651, 214
1121, 674, 652, 222
1122, 674, 670, 652
1123, 675, 653, 177
1124, 675, 671, 653
1125, 654, 167, 582
1126, 654, 190, 534
1127, 655, 128, 583
1128, 655, 123, 535
1129, 656, 131, 584
1130, 684, 656, 136
1131, 657, 186, 585
1132, 685, 657, 163
1133, 676, 658, 187
1134, 676, 672, 658
1135, 677, 659, 129
1136, 677, 673, 659
1137, 712, 660, 694
1138, 660, 145, 578
1139, 713, 661, 695
1140, 661, 157, 579
1141, 708, 662, 104
1142, 754, 662, 708
1143, 663, 240, 580
1144, 709, 663, 209
1145, 710, 687, 664
1146, 664, 239, 596
1147, 665, 217, 597
1148, 711, 665, 216
1149, 666, 171, 616
1150, 666, 194, 552
1151, 667, 120, 617
1152, 667, 116, 553
1153, 668, 340, 158
1154, 668, 495, 606
1155, 669, 339, 102
1156, 669, 494, 607
1157, 728, 670, 235
1158, 670, 236, 576
1159, 729, 671, 213
1160, 671, 214, 577
1161, 732, 672, 164
1162, 672, 163, 585
1163, 733, 673, 134
1164, 673, 136, 584
1165, 735, 674, 222
1166, 826, 726, 735
1167, 827, 727, 734
1168, 675, 213, 671
1169, 825, 730, 737
1170, 676, 164, 672
1171, 736, 731, 677
1172, 677, 134, 673
1173, 768, 678, 717
1174, 691, 678, 111
1175, 769, 679, 716
1176, 690, 679, 244
1177, 752, 738, 680
1178, 680, 106, 649
1179, 785, 739, 236
1180, 681, 237, 588
1181, 786, 740, 214
1182, 682, 215, 589
1183, 753, 741, 683
1184, 683, 207, 648
1185, 790, 750, 136
1186, 684, 138, 592
1187, 791, 751, 163
1188, 685, 162, 593
1189, 799, 686, 110
1190, 686, 217, 665
1191, 798, 687, 245
1192, 687, 239, 664
1193, 688, 496, 172
1194, 744, 688, 342
1195, 689, 497, 118
1196, 745, 689, 345
1197, 720, 690, 244
1198, 720, 707, 690
1199, 721, 691, 111
1200, 721, 706, 691
1201, 722, 692, 155
1202, 722, 705, 692
1203, 723, 693, 147
1204, 723, 704, 693
1205, 694, 642, 160
1206, 712, 694, 146
1207, 695, 643, 142
1208, 713, 695, 156
1209, 724, 696, 156
1210, 724, 701, 696
1211, 725, 697, 146
1212, 725, 700, 697
1213, 713, 698, 702
1214, 698, 156, 696
1215, 712, 699, 703
1216, 699, 146, 697
1217, 700, 147, 693
1218, 700, 124, 641
1219, 701, 155, 692
1220, 701, 169, 640
1221, 744, 702, 171
1222, 713, 702, 157
1223, 745, 703, 120
1224, 712, 703, 145
1225, 746, 704, 148
1226, 704, 126, 639
1227, 747, 705, 154
1228, 705, 168, 638
1229, 752, 706, 112
1230, 706, 107, 637
1231, 753, 707, 243
1232, 707, 206, 636
1233, 817, 756, 227
1234, 754, 708, 105
1235, 755, 709, 208
1236, 757, 709, 209
1237, 758, 710, 238
1238, 769, 710, 244
1239, 759, 711, 216
1240, 768, 711, 111
1241, 712, 145, 660
1242, 712, 146, 699
1243, 713, 157, 661
1244, 713, 156, 698
1245, 779, 761, 714
1246, 714, 240, 663
1247, 715, 115, 662
1248, 778, 114, 729
1249, 716, 646, 204
1250, 769, 716, 245
1251, 717, 647, 109
1252, 768, 717, 110
1253, 747, 718, 168
1254, 718, 167, 654
1255, 746, 719, 126
1256, 719, 128, 655
1257, 758, 244, 710
1258, 720, 243, 707
1259, 759, 111, 711
1260, 721, 112, 706
1261, 807, 804, 155
1262, 722, 154, 705
1263, 806, 805, 147
1264, 723, 148, 704
1265, 743, 724, 156
1266, 724, 155, 701
1267, 742, 725, 146
1268, 725, 147, 700
1269, 761, 726, 234
1270, 726, 235, 674
1271, 760, 727, 212
1272, 727, 213, 675
1273, 779, 728, 235
1274, 808, 728, 241
1275, 778, 729, 213
1276, 809, 729, 114
1277, 833, 781, 730
1278, 730, 164, 676
1279, 832, 780, 731
1280, 731, 134, 677
1281, 781, 732, 164
1282, 811, 732, 150
1283, 780, 733, 134
1284, 810, 733, 152
1285, 734, 177, 352
1286, 827, 734, 178
1287, 735, 222, 358
1288, 826, 735, 223
1289, 736, 129, 459
1290, 824, 736, 127
1291, 737, 187, 433
1292, 825, 737, 188
1293, 771, 738, 752
1294, 784, 738, 113
1295, 770, 766, 739
1296, 770, 739, 242
1297, 771, 767, 740
1298, 771, 740, 113
1299, 770, 741, 753
1300, 787, 741, 242
1301, 742, 146, 694
1302, 782, 742, 160
1303, 743, 156, 695
1304, 783, 743, 142
1305, 744, 157, 702
1306, 744, 171, 688
1307, 745, 145, 703
1308, 745, 120, 689
1309, 746, 126, 704
1310, 773, 746, 148
1311, 747, 168, 705
1312, 772, 747, 154
1313, 788, 748, 149
1314, 748, 719, 746
1315, 789, 749, 153
1316, 749, 718, 747
1317, 772, 764, 750
1318, 772, 750, 153
1319, 773, 765, 751
1320, 773, 751, 149
1321, 752, 107, 706
1322, 771, 752, 112
1323, 753, 206, 707
1324, 770, 753, 243
1325, 776, 754, 105
1326, 754, 114, 715
1327, 777, 755, 208
1328, 755, 241, 714
1329, 818, 104, 581
1330, 817, 792, 756
1331, 819, 209, 580
1332, 816, 793, 757
1333, 797, 758, 238
1334, 802, 758, 797
1335, 796, 759, 216
1336, 803, 759, 796
1337, 843, 774, 212
1338, 760, 115, 715
1339, 842, 775, 234
1340, 761, 240, 714
1341, 762, 481, 488
1342, 762, 245, 716
1343, 763, 479, 492
1344, 763, 110, 717
1345, 800, 764, 154
1346, 764, 138, 684
1347, 801, 765, 148
1348, 765, 162, 685
1349, 802, 766, 243
1350, 766, 237, 681
1351, 803, 767, 112
1352, 767, 215, 682
1353, 768, 110, 686
1354, 768, 111, 678
1355, 769, 245, 687
1356, 769, 244, 679
1357, 770, 242, 741
1358, 770, 243, 766
1359, 771, 113, 738
1360, 771, 112, 767
1361, 772, 153, 749
1362, 772, 154, 764
1363, 773, 149, 748
1364, 773, 148, 765
1365, 774, 343, 504
1366, 774, 504, 115
1367, 775, 344, 505
1368, 775, 505, 240
1369, 812, 776, 105
1370, 812, 784, 776
1371, 813, 777, 208
1372, 813, 787, 777
1373, 778, 715, 114
1374, 778, 213, 727
1375, 779, 714, 241
1376, 779, 235, 726
1377, 836, 780, 832
1378, 780, 152, 733
1379, 837, 781, 833
1380, 781, 150, 732
1381, 782, 160, 610
1382, 806, 161, 805
1383, 783, 142, 611
1384, 807, 140, 804
1385, 784, 106, 738
1386, 809, 784, 113
1387, 785, 242, 739
1388, 785, 236, 728
1389, 786, 113, 740
1390, 786, 214, 729
1391, 787, 207, 741
1392, 808, 787, 242
1393, 834, 814, 788
1394, 788, 128, 748
1395, 789, 167, 749
1396, 810, 789, 153
1397, 790, 153, 750
1398, 790, 136, 733
1399, 791, 149, 751
1400, 791, 163, 732
1401, 822, 792, 228
1402, 792, 708, 756
1403, 823, 793, 199
1404, 793, 709, 757
1405, 794, 501, 522
1406, 794, 227, 756
1407, 795, 500, 523
1408, 795, 198, 757
1409, 803, 796, 215
1410, 796, 216, 601
1411, 802, 797, 237
1412, 797, 238, 600
1413, 798, 245, 488
1414, 798, 484, 239
1415, 799, 110, 492
1416, 799, 482, 217
1417, 800, 138, 764
1418, 800, 154, 722
1419, 801, 162, 765
1420, 801, 148, 723
1421, 802, 237, 766
1422, 802, 243, 720
1423, 803, 215, 767
1424, 803, 112, 721
1425, 804, 722, 155
1426, 821, 804, 140
1427, 805, 723, 147
1428, 820, 805, 161
1429, 806, 147, 725
1430, 806, 725, 742
1431, 807, 155, 724
1432, 807, 724, 743
1433, 808, 242, 785
1434, 808, 241, 777
1435, 809, 113, 786
1436, 809, 114, 776
1437, 810, 153, 790
1438, 846, 835, 152
1439, 811, 149, 791
1440, 847, 834, 150
1441, 822, 812, 105
1442, 812, 106, 784
1443, 823, 813, 208
1444, 813, 207, 787
1445, 844, 814, 130
1446, 814, 128, 788
1447, 845, 815, 166
1448, 815, 167, 789
1449, 816, 198, 444
1450, 816, 199, 793
1451, 817, 227, 470
1452, 817, 228, 792
1453, 818, 338, 103
1454, 818, 501, 794
1455, 819, 341, 210
1456, 819, 500, 795
1457, 820, 161, 604
1458, 820, 162, 801
1459, 821, 140, 605
1460, 821, 138, 800
1461, 822, 105, 792
1462, 822, 228, 519
1463, 823, 208, 793
1464, 823, 199, 518
1465, 830, 824, 127
1466, 824, 132, 731
1467, 853, 849, 831
1468, 825, 165, 730
1469, 828, 826, 223
1470, 826, 234, 726
1471, 829, 827, 178
1472, 827, 212, 727
1473, 828, 223, 515
1474, 842, 499, 344
1475, 829, 178, 514
1476, 843, 498, 343
1477, 852, 848, 830
1478, 848, 841, 830
1479, 849, 845, 166
1480, 831, 165, 825
1481, 838, 832, 132
1482, 838, 836, 832
1483, 839, 833, 165
1484, 839, 837, 833
1485, 834, 811, 150
1486, 834, 130, 814
1487, 835, 810, 152
1488, 835, 166, 815
1489, 850, 151, 839
1490, 836, 152, 780
1491, 851, 151, 838
1492, 837, 150, 781
1493, 838, 151, 836
1494, 841, 838, 132
1495, 850, 840, 846
1496, 839, 151, 837
1497, 840, 165, 831
1498, 846, 840, 166
1499, 841, 132, 830
1500, 847, 841, 130
1501, 842, 344, 775
1502, 842, 234, 828
1503, 843, 343, 774
1504, 843, 212, 829
1505, 848, 130, 841
1506, 844, 125, 583
1507, 849, 166, 840
1508, 845, 189, 582
1509, 846, 166, 835
1510, 850, 152, 836
1511, 847, 130, 834
1512, 851, 150, 837
1513, 852, 830, 127
1514, 848, 125, 844
1515, 853, 831, 188
1516, 849, 189, 845
1517, 850, 836, 151
1518, 850, 839, 840
1519, 851, 837, 151
1520, 851, 838, 841
1521, 852, 127, 389
1522, 852, 125, 848
1523, 853, 188, 393
1524, 853, 189, 849
*Nset, nset=_PickedSet2, internal, generate
   1,  853,    1
*Elset, elset=_PickedSet2, internal, generate
    1,  1524,     1
** Section: Section-1
*Solid Section, elset=_PickedSet2, material=Material-1
1.,
*End Part
**  
**
** ASSEMBLY
**
*Assembly, name=Assembly
**  
*Instance, name=plate-1, part=plate
*End Instance
**  
*Nset, nset=LeftEdgeSet, instance=plate-1
  57,  58,  59,  60,  61,  62,  63, 285, 286, 287, 288, 289
*Elset, elset=LeftEdgeSet, instance=plate-1
 223, 367, 431, 433, 434, 436, 772, 778, 785, 788, 795
*Elset, elset=_LoadSurface_S2, internal, instance=plate-1
 292, 295, 471, 473, 474, 770, 774, 782, 784, 803
*Elset, elset=_LoadSurface_S1, internal, instance=plate-1
 476,
*Surface, type=ELEMENT, name=LoadSurface
_LoadSurface_S2, S2
_LoadSurface_S1, S1
*End Assembly
** 
** MATERIALS
** 
*Material, name=Material-1
*Elastic
 2.9e+07, 0.3
** 
** BOUNDARY CONDITIONS
** 
** Name: BC-LeftEdge Type: Displacement/Rotation
*Boundary
LeftEdgeSet, 1, 1
LeftEdgeSet, 2, 2
** ----------------------------------------------------------------
** 
** STEP: Step-1
** 
*Step, name=Step-1, nlgeom=NO
*Static
1., 1., 1e-05, 1.
** 
** LOADS
** 
** Name: Load-1   Type: Pressure
*Dsload
LoadSurface, P, -9499.
** 
** OUTPUT REQUESTS
** 
*Restart, write, frequency=0
** 
** FIELD OUTPUT: F-Output-1
** 
*Output, field, variable=PRESELECT
** 
** HISTORY OUTPUT: H-Output-1
** 
*Output, history, variable=PRESELECT
*End Step
